
     Program PWSCF v.7.5 starts on 28Aug2026 at 17:43:28 

     This program is part of the open-source Quantum ESPRESSO suite
     for quantum simulation of materials; please cite
         "P. Giannozzi et al., J. Phys.:Condens. Matter 21 395502 (2009);
         "P. Giannozzi et al., J. Phys.:Condens. Matter 29 465901 (2017);
         "P. Giannozzi et al., J. Chem. Phys. 152 154105 (2020);
          URL http://www.quantum-espresso.org", 
     in publications or presentations arising from this work. More details at
     http://www.quantum-espresso.org/quote

     Parallel version (MPI & OpenMP), running on      48 processor cores
     Number of MPI processes:                48
     Threads/MPI process:                     1

     MPI processes distributed on     1 nodes
     343199 MiB available memory on the printing compute node when the environment starts

     Reading input from inputs_runtime/hbn_k2_attempt1.in

     Current dimensions of program PWSCF are:
     Max number of different atomic species (ntypx) = 10
     Max number of k-points (npk) =  40000
     Max angular momentum in pseudopotentials (lmaxx) =  4
     file N.pbe-n-kjpaw_psl.1.0.0.UPF: wavefunction(s)  2S renormalized

     K-points division:     npool     =       4
     R & G space division:  proc/nbgrp/npool/nimage =      12
     Subspace diagonalization in iterative solution of the eigenvalue problem:
     one sub-group per band group will be used
     ELPA distributed-memory algorithm (size of sub-group:  2*  2 procs)


     Parallelization info
     --------------------
     sticks:   dense  smooth     PW     G-vecs:    dense   smooth      PW
     Min        1672     835    223               603496   213374   29381
     Max        1673     837    224               603507   213383   29396
     Sum       20065   10033   2677              7241989  2560523  352613

     Using Slab Decomposition


     Title: 
     hBN-cap matched hbn k2 attempt 1                                           


     bravais-lattice index     =            0
     lattice parameter (alat)  =      26.9796  a.u.
     unit-cell volume          =   53606.0115 (a.u.)^3
     number of atoms/cell      =           62
     number of atomic types    =            2
     number of electrons       =       248.00
     number of Kohn-Sham states=          160
     kinetic-energy cutoff     =      50.0000  Ry
     charge density cutoff     =     400.0000  Ry
     scf convergence threshold =      1.0E-08
     mixing beta               =       0.0100
     number of iterations used =           20  TF        mixing
     Exchange-correlation= SLA  PW   PBX  PBC
                           (   1   4   3   4   0   0   0)

     celldm(1)=  26.979621  celldm(2)=   0.000000  celldm(3)=   0.000000
     celldm(4)=   0.000000  celldm(5)=   0.000000  celldm(6)=   0.000000

     crystal axes: (cart. coord. in units of alat)
               a(1) = (   1.000000   0.000000   0.000000 )  
               a(2) = (  -0.500000   0.866025   0.000000 )  
               a(3) = (   0.000000   0.000000   3.151923 )  

     reciprocal axes: (cart. coord. in units 2 pi/alat)
               b(1) = (  1.000000  0.577351 -0.000000 )  
               b(2) = (  0.000000  1.154701  0.000000 )  
               b(3) = (  0.000000 -0.000000  0.317267 )  


     PseudoPot. # 1 for B  read from file:
     ./REDACTED_PATH
     MD5 check sum: 8c825a5969375aca5c2c6ad5945b3059
     Pseudo is Projector augmented-wave + core cor, Zval =  3.0
     Generated using &quot;atomic&quot; code by A. Dal Corso  v.6.3
     Shape of augmentation charge: PSQ
     Using radial grid of 1059 points,  4 beta functions with: 
                l(1) =   0
                l(2) =   0
                l(3) =   1
                l(4) =   1
     Q(r) pseudized with 0 coefficients 


     PseudoPot. # 2 for N  read from file:
     ./REDACTED_PATH
     MD5 check sum: 14c48229446f9f2d411169a3abcbc3fa
     Pseudo is Projector augmented-wave + core cor, Zval =  5.0
     Generated using &quot;atomic&quot; code by A. Dal Corso  v.6.3
     Shape of augmentation charge: PSQ
     Using radial grid of 1085 points,  4 beta functions with: 
                l(1) =   0
                l(2) =   0
                l(3) =   1
                l(4) =   1
     Q(r) pseudized with 0 coefficients 


     atomic species   valence    mass     pseudopotential
     B                 3.00    10.81100     B ( 1.00)
     N                 5.00    14.00700     N ( 1.00)

     Starting magnetic structure 
     atomic species   magnetization
     B               0.000
     N               0.000

     No symmetry found


                                    s                        frac. trans.

      isym =  1     identity                                     

 cryst.   s( 1) = (     1          0          0      )
                  (     0          1          0      )
                  (     0          0          1      )

 cart.    s( 1) = (  1.0000000  0.0000000  0.0000000 )
                  (  0.0000000  1.0000000  0.0000000 )
                  (  0.0000000  0.0000000  1.0000000 )


   Cartesian axes

     site n.     atom                  positions (alat units)
         1        B      tau(   1) = (  -0.0268333   0.1707980   1.7436202  )
         2        B      tau(   2) = (   0.9086503   0.0030854   1.7434470  )
         3        B      tau(   3) = (   0.3441541   0.7015000   1.7438299  )
         4        B      tau(   4) = (   0.2795859   0.5338965   1.7429295  )
         5        B      tau(   5) = (   0.2150211   0.3663068   1.7434337  )
         6        B      tau(   6) = (   0.1505585   0.1987310   1.7434598  )
         7        B      tau(   7) = (   0.0860048   0.0310464   1.7434679  )
         8        B      tau(   8) = (   0.5215116   0.7294580   1.7453052  )
         9        B      tau(   9) = (   0.4570305   0.5618708   1.7444304  )
        10        B      tau(  10) = (   0.3924841   0.3942214   1.7427876  )
        11        B      tau(  11) = (   0.3280060   0.2265767   1.7436256  )
        12        B      tau(  12) = (   0.2635005   0.0589841   1.7434671  )
        13        B      tau(  13) = (  -0.3011088   0.7574126   1.7436283  )
        14        B      tau(  14) = (   0.6343932   0.5898573   1.7443394  )
        15        B      tau(  15) = (   0.5698894   0.4222060   1.7432285  )
        16        B      tau(  16) = (   0.5053612   0.2544969   1.7443393  )
        17        B      tau(  17) = (   0.4409051   0.0869390   1.7452985  )
        18        B      tau(  18) = (  -0.1236066   0.7853965   1.7434411  )
        19        B      tau(  19) = (  -0.1881630   0.6177501   1.7427938  )
        20        B      tau(  20) = (  -0.2526299   0.4501188   1.7432337  )
        21        B      tau(  21) = (   0.6828031   0.2824602   1.7432265  )
        22        B      tau(  22) = (   0.6182806   0.1148904   1.7444281  )
        23        B      tau(  23) = (   0.0537972   0.8133474   1.7438206  )
        24        B      tau(  24) = (  -0.0107520   0.6456871   1.7429353  )
        25        B      tau(  25) = (  -0.0752475   0.4780269   1.7444310  )
        26        B      tau(  26) = (  -0.1396911   0.3104319   1.7443364  )
        27        B      tau(  27) = (   0.7957429   0.1428157   1.7427880  )
        28        B      tau(  28) = (   0.2312312   0.8412312   1.7429345  )
        29        B      tau(  29) = (   0.1666885   0.6736052   1.7425708  )
        30        B      tau(  30) = (   0.1021137   0.5059678   1.7438177  )
        31        B      tau(  31) = (   0.0376471   0.3383910   1.7452861  )
        32        N      tau(  32) = (   0.2634930   0.6363286   1.7430011  )
        33        N      tau(  33) = (   0.1988763   0.4687584   1.7434609  )
        34        N      tau(  34) = (   0.1343883   0.3012139   1.7447005  )
        35        N      tau(  35) = (   0.0699110   0.1335405   1.7434252  )
        36        N      tau(  36) = (   0.5053379   0.8318266   1.7447203  )
        37        N      tau(  37) = (   0.4409078   0.6642542   1.7454723  )
        38        N      tau(  38) = (   0.3764091   0.4966922   1.7432347  )
        39        N      tau(  39) = (   0.3118241   0.3290462   1.7427340  )
        40        N      tau(  40) = (   0.2473676   0.1614223   1.7434288  )
        41        N      tau(  41) = (  -0.3172148   0.8598241   1.7434328  )
        42        N      tau(  42) = (  -0.3817738   0.6922618   1.7453860  )
        43        N      tau(  43) = (   0.5537963   0.5246884   1.7446419  )
        44        N      tau(  44) = (   0.4892515   0.3569593   1.7432835  )
        45        N      tau(  45) = (   0.4247602   0.1892941   1.7453846  )
        46        N      tau(  46) = (   0.3603378   0.0217471   1.7447142  )
        47        N      tau(  47) = (  -0.2042769   0.7201914   1.7427367  )
        48        N      tau(  48) = (  -0.2688166   0.5525777   1.7432859  )
        49        N      tau(  49) = (   0.6666877   0.3849292   1.7429547  )
        50        N      tau(  50) = (   0.6020983   0.2172829   1.7446425  )
        51        N      tau(  51) = (   0.5376754   0.0497357   1.7454629  )
        52        N      tau(  52) = (  -0.0268086   0.7481517   1.7434669  )
        53        N      tau(  53) = (  -0.0913833   0.5804364   1.7432458  )
        54        N      tau(  54) = (  -0.1558307   0.4128165   1.7446501  )
        55        N      tau(  55) = (   0.7796289   0.2452505   1.7432789  )
        56        N      tau(  56) = (   0.7150382   0.0776594   1.7432393  )
        57        N      tau(  57) = (   0.1505678   0.7760778   1.7429979  )
        58        N      tau(  58) = (   0.0860037   0.6084073   1.7430006  )
        59        N      tau(  59) = (   0.0214812   0.4407987   1.7454527  )
        60        N      tau(  60) = (  -0.0429225   0.2732320   1.7453746  )
        61        N      tau(  61) = (   0.8925166   0.1055500   1.7427360  )
        62        N      tau(  62) = (   0.3279967   0.8039032   1.7434758  )

     --------------------------------------------
     DFT-D3 Dispersion Correction (3-body terms):
     --------------------------------------------
       Reference C6 values for interpolation: 

         atom   Coordination number   C6
         B          0.000           214.36
         B          0.971           150.74
         B          1.944           106.23
         B          2.913            62.89
         B          4.586            56.06
         N          0.000            50.54
         N          0.994            44.25
         N          2.014            39.35
         N          2.990            31.16

       Values used:

         atom   Coordination number  R0_AB[au]  C6      C8
         B          3.242            3.039     62.95   2508.14
         B          3.242            3.039     62.95   2508.14
         B          3.243            3.039     62.95   2508.13
         B          3.242            3.039     62.95   2508.15
         B          3.242            3.039     62.95   2508.14
         B          3.242            3.039     62.95   2508.14
         B          3.242            3.039     62.95   2508.14
         B          3.243            3.039     62.94   2508.12
         B          3.243            3.039     62.94   2508.13
         B          3.242            3.039     62.95   2508.15
         B          3.242            3.039     62.95   2508.14
         B          3.242            3.039     62.95   2508.14
         B          3.242            3.039     62.95   2508.14
         B          3.243            3.039     62.95   2508.13
         B          3.242            3.039     62.95   2508.15
         B          3.243            3.039     62.95   2508.13
         B          3.243            3.039     62.94   2508.12
         B          3.242            3.039     62.95   2508.14
         B          3.242            3.039     62.95   2508.15
         B          3.242            3.039     62.95   2508.15
         B          3.242            3.039     62.95   2508.15
         B          3.243            3.039     62.94   2508.13
         B          3.243            3.039     62.95   2508.13
         B          3.242            3.039     62.95   2508.15
         B          3.243            3.039     62.94   2508.13
         B          3.243            3.039     62.95   2508.13
         B          3.242            3.039     62.95   2508.15
         B          3.242            3.039     62.95   2508.15
         B          3.242            3.039     62.95   2508.15
         B          3.243            3.039     62.95   2508.13
         B          3.243            3.039     62.94   2508.12
         N          3.094            2.478     31.24    689.14
         N          3.094            2.478     31.24    689.14
         N          3.094            2.478     31.24    689.14
         N          3.094            2.478     31.24    689.14
         N          3.094            2.478     31.24    689.14
         N          3.094            2.478     31.24    689.13
         N          3.094            2.478     31.24    689.14
         N          3.094            2.478     31.24    689.14
         N          3.094            2.478     31.24    689.14
         N          3.094            2.478     31.24    689.14
         N          3.094            2.478     31.24    689.14
         N          3.094            2.478     31.24    689.14
         N          3.094            2.478     31.24    689.14
         N          3.094            2.478     31.24    689.14
         N          3.094            2.478     31.24    689.14
         N          3.094            2.478     31.24    689.14
         N          3.094            2.478     31.24    689.14
         N          3.093            2.478     31.24    689.14
         N          3.094            2.478     31.24    689.14
         N          3.094            2.478     31.24    689.13
         N          3.094            2.478     31.24    689.14
         N          3.094            2.478     31.24    689.14
         N          3.094            2.478     31.24    689.14
         N          3.094            2.478     31.24    689.14
         N          3.094            2.478     31.24    689.14
         N          3.094            2.478     31.24    689.14
         N          3.094            2.478     31.24    689.14
         N          3.094            2.478     31.24    689.13
         N          3.094            2.478     31.24    689.14
         N          3.094            2.478     31.24    689.14
         N          3.094            2.478     31.24    689.14

         Molecular C6 ( Ry / a.u.^6 ) =    174147.02


   Crystallographic axes

     site n.     atom                  positions (cryst. coord.)
         1        B      tau(   1) = (  0.0717770  0.1972207  0.5531926  )
         2        B      tau(   2) = (  0.9104316  0.0035627  0.5531377  )
         3        B      tau(   3) = (  0.7491655  0.8100227  0.5532591  )
         4        B      tau(   4) = (  0.5878313  0.6164909  0.5529734  )
         5        B      tau(   5) = (  0.4265085  0.4229748  0.5531334  )
         6        B      tau(   6) = (  0.2652960  0.2294749  0.5531417  )
         7        B      tau(   7) = (  0.1039295  0.0358493  0.5531443  )
         8        B      tau(   8) = (  0.9426645  0.8423059  0.5537272  )
         9        B      tau(   9) = (  0.7814269  0.6487929  0.5534496  )
        10        B      tau(  10) = (  0.6200881  0.4552079  0.5529284  )
        11        B      tau(  11) = (  0.4588202  0.2616284  0.5531943  )
        12        B      tau(  12) = (  0.2975550  0.0681090  0.5531440  )
        13        B      tau(  13) = (  0.1361838  0.8745851  0.5531952  )
        14        B      tau(  14) = (  0.9749477  0.6811089  0.5534208  )
        15        B      tau(  15) = (  0.8136503  0.4875218  0.5530683  )
        16        B      tau(  16) = (  0.6522952  0.2938678  0.5534207  )
        17        B      tau(  17) = (  0.4910994  0.1003886  0.5537250  )
        18        B      tau(  18) = (  0.3298425  0.9068981  0.5531358  )
        19        B      tau(  19) = (  0.1684953  0.7133167  0.5529304  )
        20        B      tau(  20) = (  0.0072464  0.5197527  0.5530700  )
        21        B      tau(  21) = (  0.8458817  0.3261571  0.5530677  )
        22        B      tau(  22) = (  0.6846126  0.1326640  0.5534489  )
        23        B      tau(  23) = (  0.5233838  0.9391732  0.5532562  )
        24        B      tau(  24) = (  0.3620358  0.7455755  0.5529753  )
        25        B      tau(  25) = (  0.2007416  0.5519782  0.5534498  )
        26        B      tau(  26) = (  0.0395370  0.3584561  0.5534198  )
        27        B      tau(  27) = (  0.8781976  0.1649095  0.5529285  )
        28        B      tau(  28) = (  0.7169164  0.9713706  0.5529750  )
        29        B      tau(  29) = (  0.5555949  0.7778127  0.5528597  )
        30        B      tau(  30) = (  0.3942345  0.5842416  0.5532552  )
        31        B      tau(  31) = (  0.2330173  0.3907405  0.5537211  )
        32        N      tau(  32) = (  0.6308776  0.7347694  0.5529962  )
        33        N      tau(  33) = (  0.4695142  0.5412758  0.5531421  )
        34        N      tau(  34) = (  0.3082943  0.3478120  0.5535353  )
        35        N      tau(  35) = (  0.1470107  0.1541993  0.5531307  )
        36        N      tau(  36) = (  0.9855935  0.9605111  0.5535416  )
        37        N      tau(  37) = (  0.8244153  0.7670150  0.5537802  )
        38        N      tau(  38) = (  0.6631746  0.5735311  0.5530703  )
        39        N      tau(  39) = (  0.5017991  0.3799500  0.5529114  )
        40        N      tau(  40) = (  0.3405649  0.1863945  0.5531319  )
        41        N      tau(  41) = (  0.1792052  0.9928399  0.5531331  )
        42        N      tau(  42) = (  0.0179039  0.7993554  0.5537528  )
        43        N      tau(  43) = (  0.8567254  0.6058583  0.5535167  )
        44        N      tau(  44) = (  0.6953422  0.4121813  0.5530858  )
        45        N      tau(  45) = (  0.5340493  0.2185781  0.5537524  )
        46        N      tau(  46) = (  0.3728935  0.0251114  0.5535397  )
        47        N      tau(  47) = (  0.2115260  0.8316057  0.5529123  )
        48        N      tau(  48) = (  0.0502144  0.6380621  0.5530865  )
        49        N      tau(  49) = (  0.8889268  0.4444781  0.5529815  )
        50        N      tau(  50) = (  0.7275467  0.2508968  0.5535169  )
        51        N      tau(  51) = (  0.5663903  0.0574299  0.5537772  )
        52        N      tau(  52) = (  0.4051371  0.8638916  0.5531440  )
        53        N      tau(  53) = (  0.2437320  0.6702306  0.5530738  )
        54        N      tau(  54) = (  0.0825091  0.4766796  0.5535193  )
        55        N      tau(  55) = (  0.9212244  0.2831910  0.5530843  )
        56        N      tau(  56) = (  0.7598749  0.0896734  0.5530717  )
        57        N      tau(  57) = (  0.5986367  0.8961378  0.5529952  )
        58        N      tau(  58) = (  0.4372679  0.7025285  0.5529960  )
        59        N      tau(  59) = (  0.2759766  0.5089907  0.5537740  )
        60        N      tau(  60) = (  0.1148282  0.3155013  0.5537492  )
        61        N      tau(  61) = (  0.9534560  0.1218787  0.5529121  )
        62        N      tau(  62) = (  0.7921307  0.9282678  0.5531468  )

     number of k points=     4  Marzari-Vanderbilt smearing, width (Ry)=  0.0200
                       cart. coord. in units 2pi/alat
        k(    1) = (   0.0000000   0.0000000   0.0000000), wk =   0.2500000
        k(    2) = (   0.0000000  -0.5773505   0.0000000), wk =   0.2500000
        k(    3) = (  -0.5000000  -0.2886753   0.0000000), wk =   0.2500000
        k(    4) = (  -0.5000000  -0.8660258   0.0000000), wk =   0.2500000

                       cryst. coord.
        k(    1) = (   0.0000000   0.0000000   0.0000000), wk =   0.2500000
        k(    2) = (   0.0000000  -0.5000000   0.0000000), wk =   0.2500000
        k(    3) = (  -0.5000000   0.0000000   0.0000000), wk =   0.2500000
        k(    4) = (  -0.5000000  -0.5000000   0.0000000), wk =   0.2500000

     Dense  grid:  7241989 G-vectors     FFT dimensions: ( 180, 180, 576)

     Smooth grid:  2560523 G-vectors     FFT dimensions: ( 125, 125, 384)

     Dynamical RAM for                 wfc:      65.11 MB

     Dynamical RAM for     wfc (w. buffer):     195.34 MB

     Dynamical RAM for           str. fact:      18.42 MB

     Dynamical RAM for           local pot:       0.00 MB

     Dynamical RAM for          nlocal pot:     201.85 MB

     Dynamical RAM for                qrad:       0.92 MB

     Dynamical RAM for          rho,v,vnew:     126.44 MB

     Dynamical RAM for               rhoin:      42.15 MB

     Dynamical RAM for            rho*nmix:     736.70 MB

     Dynamical RAM for           G-vectors:      36.16 MB

     Dynamical RAM for          h,s,v(r/c):       1.17 MB

     Dynamical RAM for          <psi|beta>:       1.21 MB

     Dynamical RAM for                 psi:     130.22 MB

     Dynamical RAM for                hpsi:     130.22 MB

     Dynamical RAM for                spsi:     130.22 MB

     Dynamical RAM for      wfcinit/wfcrot:     130.81 MB

     Dynamical RAM for           addusdens:     186.48 MB

     Dynamical RAM for          addusforce:     317.75 MB

     Dynamical RAM for         addusstress:     125.47 MB

     Estimated static dynamical RAM per process >     720.09 MB

     Estimated max dynamical RAM per process >       1.81 GB

     Estimated total dynamical RAM >      60.81 GB
 ----2D----2D----2D----2D----2D----2D----2D----2D----2D----2D----2D----2D
  The code is running with the 2D cutoff
  Please refer to:
  Sohier, T., Calandra, M., & Mauri, F. (2017), 
  Density functional perturbation theory for gated two-dimensional heterostructures:
  Theoretical developments and application to flexural phonons in graphene.
  Physical Review B, 96(7), 75448. https://doi.org/10.1103/PhysRevB.96.075448
 ----2D----2D----2D----2D----2D----2D----2D----2D----2D----2D----2D----2D
     Generating pointlists ...
     new r_m :   0.0427 (alat units)  1.1532 (a.u.) for type    1
     new r_m :   0.0427 (alat units)  1.1532 (a.u.) for type    2

     Initial potential from superposition of free atoms

     starting charge     247.9910, renormalised to     248.0000

     negative rho (up, down):  2.815E-03 2.815E-03
     Starting wfcs are  248 randomized atomic wfcs
     Checking if some PAW data can be deallocated... 
       PAW data deallocated on   31 nodes for type:  1
       PAW data deallocated on   17 nodes for type:  2

     total cpu time spent up to now is       35.8 secs

     per-process dynamical memory:   953.9 Mb

     Self-consistent Calculation

     iteration #  1     ecut=    50.00 Ry     beta= 0.01
     Davidson diagonalization with overlap

---- Real-time Memory Report at c_bands before calling an iterative solver
          1017 MiB given to the printing process from OS
           931 MiB allocation reported by mallinfo(arena+hblkhd)
        255789 MiB available memory on the node where the printing process lives
------------------
     ethr =  1.00E-02,  avg # of iterations =  4.5

     negative rho (up, down):  2.760E-03 2.760E-03

     total cpu time spent up to now is      100.3 secs

     total energy              =   -1239.64579643 Ry
     estimated scf accuracy    <      11.63945054 Ry

     total magnetization       =     0.00 Bohr mag/cell
     absolute magnetization    =     0.05 Bohr mag/cell

     iteration #  2     ecut=    50.00 Ry     beta= 0.01
     Davidson diagonalization with overlap

---- Real-time Memory Report at c_bands before calling an iterative solver
          1272 MiB given to the printing process from OS
          1185 MiB allocation reported by mallinfo(arena+hblkhd)
        250040 MiB available memory on the node where the printing process lives
------------------
     ethr =  4.69E-03,  avg # of iterations =  1.0

     negative rho (up, down):  1.147E-02 1.147E-02

     total cpu time spent up to now is      142.9 secs

     total energy              =   -1236.92406977 Ry
     estimated scf accuracy    <      11.33147145 Ry

     total magnetization       =    -0.00 Bohr mag/cell
     absolute magnetization    =     0.05 Bohr mag/cell

     iteration #  3     ecut=    50.00 Ry     beta= 0.01
     Davidson diagonalization with overlap

---- Real-time Memory Report at c_bands before calling an iterative solver
          1408 MiB given to the printing process from OS
          1198 MiB allocation reported by mallinfo(arena+hblkhd)
        259787 MiB available memory on the node where the printing process lives
------------------
     ethr =  4.57E-03,  avg # of iterations =  1.0

     negative rho (up, down):  2.377E-02 2.376E-02

     total cpu time spent up to now is      185.6 secs

     total energy              =   -1235.97658091 Ry
     estimated scf accuracy    <       3.98678949 Ry

     total magnetization       =     0.00 Bohr mag/cell
     absolute magnetization    =     0.04 Bohr mag/cell

     iteration #  4     ecut=    50.00 Ry     beta= 0.01
     Davidson diagonalization with overlap

---- Real-time Memory Report at c_bands before calling an iterative solver
          1422 MiB given to the printing process from OS
          1211 MiB allocation reported by mallinfo(arena+hblkhd)
        272151 MiB available memory on the node where the printing process lives
------------------
     ethr =  1.61E-03,  avg # of iterations =  4.2

     negative rho (up, down):  1.966E-02 1.966E-02

     total cpu time spent up to now is      240.0 secs

     total energy              =   -1236.55299782 Ry
     estimated scf accuracy    <       1.34161922 Ry

     total magnetization       =    -0.00 Bohr mag/cell
     absolute magnetization    =     0.03 Bohr mag/cell

     iteration #  5     ecut=    50.00 Ry     beta= 0.01
     Davidson diagonalization with overlap

---- Real-time Memory Report at c_bands before calling an iterative solver
          1437 MiB given to the printing process from OS
          1224 MiB allocation reported by mallinfo(arena+hblkhd)
        283324 MiB available memory on the node where the printing process lives
------------------
     ethr =  5.41E-04,  avg # of iterations =  5.0

     negative rho (up, down):  2.175E-02 2.174E-02

     total cpu time spent up to now is      288.3 secs

     total energy              =   -1236.57422060 Ry
     estimated scf accuracy    <       1.59975029 Ry

     total magnetization       =     0.00 Bohr mag/cell
     absolute magnetization    =     0.03 Bohr mag/cell

     iteration #  6     ecut=    50.00 Ry     beta= 0.01
     Davidson diagonalization with overlap

---- Real-time Memory Report at c_bands before calling an iterative solver
          1450 MiB given to the printing process from OS
          1237 MiB allocation reported by mallinfo(arena+hblkhd)
        295334 MiB available memory on the node where the printing process lives
------------------
     ethr =  5.41E-04,  avg # of iterations =  1.8

     negative rho (up, down):  2.718E-02 2.718E-02

     total cpu time spent up to now is      334.0 secs

     total energy              =   -1236.30667949 Ry
     estimated scf accuracy    <       1.38412029 Ry

     total magnetization       =    -0.00 Bohr mag/cell
     absolute magnetization    =     0.03 Bohr mag/cell

     iteration #  7     ecut=    50.00 Ry     beta= 0.01
     Davidson diagonalization with overlap

---- Real-time Memory Report at c_bands before calling an iterative solver
          1463 MiB given to the printing process from OS
          1251 MiB allocation reported by mallinfo(arena+hblkhd)
        294985 MiB available memory on the node where the printing process lives
------------------
     ethr =  5.41E-04,  avg # of iterations =  4.2

     negative rho (up, down):  2.788E-02 2.788E-02

     total cpu time spent up to now is      381.5 secs

     total energy              =   -1236.33213507 Ry
     estimated scf accuracy    <       0.73929418 Ry

     total magnetization       =     0.00 Bohr mag/cell
     absolute magnetization    =     0.02 Bohr mag/cell

     iteration #  8     ecut=    50.00 Ry     beta= 0.01
     Davidson diagonalization with overlap

---- Real-time Memory Report at c_bands before calling an iterative solver
          1476 MiB given to the printing process from OS
          1264 MiB allocation reported by mallinfo(arena+hblkhd)
        288674 MiB available memory on the node where the printing process lives
------------------
     ethr =  2.98E-04,  avg # of iterations =  1.8

     negative rho (up, down):  2.649E-02 2.650E-02

     total cpu time spent up to now is      427.4 secs

     total energy              =   -1236.12133644 Ry
     estimated scf accuracy    <       0.70277555 Ry

     total magnetization       =    -0.00 Bohr mag/cell
     absolute magnetization    =     0.02 Bohr mag/cell

     iteration #  9     ecut=    50.00 Ry     beta= 0.01
     Davidson diagonalization with overlap

---- Real-time Memory Report at c_bands before calling an iterative solver
          1489 MiB given to the printing process from OS
          1277 MiB allocation reported by mallinfo(arena+hblkhd)
        289033 MiB available memory on the node where the printing process lives
------------------
     ethr =  2.83E-04,  avg # of iterations =  6.2

     negative rho (up, down):  2.628E-02 2.629E-02

     total cpu time spent up to now is      480.1 secs

     total energy              =   -1236.13098071 Ry
     estimated scf accuracy    <       0.27404539 Ry

     total magnetization       =    -0.00 Bohr mag/cell
     absolute magnetization    =     0.01 Bohr mag/cell

     iteration # 10     ecut=    50.00 Ry     beta= 0.01
     Davidson diagonalization with overlap

---- Real-time Memory Report at c_bands before calling an iterative solver
          1504 MiB given to the printing process from OS
          1290 MiB allocation reported by mallinfo(arena+hblkhd)
        288048 MiB available memory on the node where the printing process lives
------------------
     ethr =  1.11E-04,  avg # of iterations =  4.0

     negative rho (up, down):  2.632E-02 2.633E-02

     total cpu time spent up to now is      527.6 secs

     total energy              =   -1236.12621694 Ry
     estimated scf accuracy    <       0.26546874 Ry

     total magnetization       =    -0.00 Bohr mag/cell
     absolute magnetization    =     0.01 Bohr mag/cell

     iteration # 11     ecut=    50.00 Ry     beta= 0.01
     Davidson diagonalization with overlap

---- Real-time Memory Report at c_bands before calling an iterative solver
          1517 MiB given to the printing process from OS
          1303 MiB allocation reported by mallinfo(arena+hblkhd)
        288068 MiB available memory on the node where the printing process lives
------------------
     ethr =  1.07E-04,  avg # of iterations =  1.0

     negative rho (up, down):  7.935E-02 7.933E-02

     total cpu time spent up to now is      570.8 secs

     total energy              =   -1236.00863793 Ry
     estimated scf accuracy    <       0.24104738 Ry

     total magnetization       =    -0.00 Bohr mag/cell
     absolute magnetization    =     0.01 Bohr mag/cell

     iteration # 12     ecut=    50.00 Ry     beta= 0.01
     Davidson diagonalization with overlap

---- Real-time Memory Report at c_bands before calling an iterative solver
          1530 MiB given to the printing process from OS
          1316 MiB allocation reported by mallinfo(arena+hblkhd)
        287862 MiB available memory on the node where the printing process lives
------------------
     c_bands:  1 eigenvalues not converged
     ethr =  9.72E-05,  avg # of iterations = 17.8

     negative rho (up, down):  9.129E-02 9.127E-02

     total cpu time spent up to now is      646.9 secs

     total energy              =   -1236.06283810 Ry
     estimated scf accuracy    <       0.12400908 Ry

     total magnetization       =     0.00 Bohr mag/cell
     absolute magnetization    =     0.01 Bohr mag/cell

     iteration # 13     ecut=    50.00 Ry     beta= 0.01
     Davidson diagonalization with overlap

---- Real-time Memory Report at c_bands before calling an iterative solver
          1543 MiB given to the printing process from OS
          1329 MiB allocation reported by mallinfo(arena+hblkhd)
        287821 MiB available memory on the node where the printing process lives
------------------
     ethr =  5.00E-05,  avg # of iterations =  8.8

     negative rho (up, down):  9.731E-02 9.728E-02

     total cpu time spent up to now is      702.5 secs

     total energy              =   -1236.04896053 Ry
     estimated scf accuracy    <       0.10343019 Ry

     total magnetization       =     0.00 Bohr mag/cell
     absolute magnetization    =     0.01 Bohr mag/cell

     iteration # 14     ecut=    50.00 Ry     beta= 0.01
     Davidson diagonalization with overlap

---- Real-time Memory Report at c_bands before calling an iterative solver
          1556 MiB given to the printing process from OS
          1342 MiB allocation reported by mallinfo(arena+hblkhd)
        288045 MiB available memory on the node where the printing process lives
------------------
     ethr =  4.17E-05,  avg # of iterations =  3.1

     negative rho (up, down):  1.347E-01 1.347E-01

     total cpu time spent up to now is      751.5 secs

     total energy              =   -1236.05092529 Ry
     estimated scf accuracy    <       0.06794847 Ry

     total magnetization       =    -0.00 Bohr mag/cell
     absolute magnetization    =     0.01 Bohr mag/cell

     iteration # 15     ecut=    50.00 Ry     beta= 0.01
     Davidson diagonalization with overlap

---- Real-time Memory Report at c_bands before calling an iterative solver
          1569 MiB given to the printing process from OS
          1355 MiB allocation reported by mallinfo(arena+hblkhd)
        287420 MiB available memory on the node where the printing process lives
------------------
     c_bands:  1 eigenvalues not converged
     ethr =  2.74E-05,  avg # of iterations = 10.9

     negative rho (up, down):  1.102E-01 1.102E-01

     total cpu time spent up to now is      826.4 secs

     total energy              =   -1236.08985511 Ry
     estimated scf accuracy    <       0.11779739 Ry

     total magnetization       =    -0.00 Bohr mag/cell
     absolute magnetization    =     0.01 Bohr mag/cell

     iteration # 16     ecut=    50.00 Ry     beta= 0.01
     Davidson diagonalization with overlap

---- Real-time Memory Report at c_bands before calling an iterative solver
          1582 MiB given to the printing process from OS
          1368 MiB allocation reported by mallinfo(arena+hblkhd)
        293414 MiB available memory on the node where the printing process lives
------------------
     ethr =  2.74E-05,  avg # of iterations =  2.9

     negative rho (up, down):  1.623E-01 1.623E-01

     total cpu time spent up to now is      875.4 secs

     total energy              =   -1236.11138833 Ry
     estimated scf accuracy    <       0.14597404 Ry

     total magnetization       =    -0.00 Bohr mag/cell
     absolute magnetization    =     0.01 Bohr mag/cell

     iteration # 17     ecut=    50.00 Ry     beta= 0.01
     Davidson diagonalization with overlap

---- Real-time Memory Report at c_bands before calling an iterative solver
          1595 MiB given to the printing process from OS
          1381 MiB allocation reported by mallinfo(arena+hblkhd)
        292238 MiB available memory on the node where the printing process lives
------------------
     ethr =  2.74E-05,  avg # of iterations =  4.2

     negative rho (up, down):  1.697E-01 1.697E-01

     total cpu time spent up to now is      926.8 secs

     total energy              =   -1236.09860985 Ry
     estimated scf accuracy    <       0.17441413 Ry

     total magnetization       =    -0.00 Bohr mag/cell
     absolute magnetization    =     0.01 Bohr mag/cell

     iteration # 18     ecut=    50.00 Ry     beta= 0.01
     Davidson diagonalization with overlap

---- Real-time Memory Report at c_bands before calling an iterative solver
          1608 MiB given to the printing process from OS
          1395 MiB allocation reported by mallinfo(arena+hblkhd)
        290697 MiB available memory on the node where the printing process lives
------------------
     ethr =  2.74E-05,  avg # of iterations =  3.0

     negative rho (up, down):  1.718E-01 1.718E-01

     total cpu time spent up to now is      975.4 secs

     total energy              =   -1236.10364725 Ry
     estimated scf accuracy    <       0.14109854 Ry

     total magnetization       =    -0.00 Bohr mag/cell
     absolute magnetization    =     0.01 Bohr mag/cell

     iteration # 19     ecut=    50.00 Ry     beta= 0.01
     Davidson diagonalization with overlap

---- Real-time Memory Report at c_bands before calling an iterative solver
          1621 MiB given to the printing process from OS
          1408 MiB allocation reported by mallinfo(arena+hblkhd)
        303819 MiB available memory on the node where the printing process lives
------------------
     ethr =  2.74E-05,  avg # of iterations =  2.0

     negative rho (up, down):  1.662E-01 1.662E-01

     total cpu time spent up to now is     1024.0 secs

     total energy              =   -1236.12896486 Ry
     estimated scf accuracy    <       0.16578722 Ry

     total magnetization       =    -0.00 Bohr mag/cell
     absolute magnetization    =     0.01 Bohr mag/cell

     iteration # 20     ecut=    50.00 Ry     beta= 0.01
     Davidson diagonalization with overlap

---- Real-time Memory Report at c_bands before calling an iterative solver
          1634 MiB given to the printing process from OS
          1421 MiB allocation reported by mallinfo(arena+hblkhd)
        303351 MiB available memory on the node where the printing process lives
------------------
     ethr =  2.74E-05,  avg # of iterations =  4.0

     negative rho (up, down):  1.631E-01 1.631E-01

     total cpu time spent up to now is     1077.1 secs

     total energy              =   -1236.09012095 Ry
     estimated scf accuracy    <       0.25146116 Ry

     total magnetization       =     0.00 Bohr mag/cell
     absolute magnetization    =     0.01 Bohr mag/cell

     iteration # 21     ecut=    50.00 Ry     beta= 0.01
     Davidson diagonalization with overlap

---- Real-time Memory Report at c_bands before calling an iterative solver
          1647 MiB given to the printing process from OS
          1434 MiB allocation reported by mallinfo(arena+hblkhd)
        303429 MiB available memory on the node where the printing process lives
------------------
     ethr =  2.74E-05,  avg # of iterations =  3.9

     negative rho (up, down):  1.626E-01 1.626E-01

     total cpu time spent up to now is     1125.8 secs

     total energy              =   -1236.09503798 Ry
     estimated scf accuracy    <       0.14279712 Ry

     total magnetization       =     0.00 Bohr mag/cell
     absolute magnetization    =     0.01 Bohr mag/cell

     iteration # 22     ecut=    50.00 Ry     beta= 0.01
     Davidson diagonalization with overlap

---- Real-time Memory Report at c_bands before calling an iterative solver
          1660 MiB given to the printing process from OS
          1447 MiB allocation reported by mallinfo(arena+hblkhd)
        303432 MiB available memory on the node where the printing process lives
------------------
     ethr =  2.74E-05,  avg # of iterations =  1.1

     negative rho (up, down):  1.622E-01 1.622E-01

     total cpu time spent up to now is     1170.9 secs

     total energy              =   -1236.09604510 Ry
     estimated scf accuracy    <       0.15621917 Ry

     total magnetization       =     0.00 Bohr mag/cell
     absolute magnetization    =     0.01 Bohr mag/cell

     iteration # 23     ecut=    50.00 Ry     beta= 0.01
     Davidson diagonalization with overlap

---- Real-time Memory Report at c_bands before calling an iterative solver
          1673 MiB given to the printing process from OS
          1447 MiB allocation reported by mallinfo(arena+hblkhd)
        303576 MiB available memory on the node where the printing process lives
------------------
     ethr =  2.74E-05,  avg # of iterations =  1.0

     negative rho (up, down):  1.385E-01 1.385E-01

     total cpu time spent up to now is     1214.7 secs

     total energy              =   -1236.02420003 Ry
     estimated scf accuracy    <       0.15552479 Ry

     total magnetization       =     0.00 Bohr mag/cell
     absolute magnetization    =     0.01 Bohr mag/cell

     iteration # 24     ecut=    50.00 Ry     beta= 0.01
     Davidson diagonalization with overlap

---- Real-time Memory Report at c_bands before calling an iterative solver
          1673 MiB given to the printing process from OS
          1447 MiB allocation reported by mallinfo(arena+hblkhd)
        303790 MiB available memory on the node where the printing process lives
------------------
     ethr =  2.74E-05,  avg # of iterations =  5.5

     negative rho (up, down):  1.121E-01 1.121E-01

     total cpu time spent up to now is     1281.4 secs

     total energy              =   -1236.05600307 Ry
     estimated scf accuracy    <       0.02745723 Ry

     total magnetization       =     0.00 Bohr mag/cell
     absolute magnetization    =     0.00 Bohr mag/cell

     iteration # 25     ecut=    50.00 Ry     beta= 0.01
     Davidson diagonalization with overlap

---- Real-time Memory Report at c_bands before calling an iterative solver
          1673 MiB given to the printing process from OS
          1447 MiB allocation reported by mallinfo(arena+hblkhd)
        310335 MiB available memory on the node where the printing process lives
------------------
     ethr =  1.11E-05,  avg # of iterations = 12.4

     negative rho (up, down):  1.114E-01 1.114E-01

     total cpu time spent up to now is     1347.6 secs

     total energy              =   -1236.05951650 Ry
     estimated scf accuracy    <       0.05161557 Ry

     total magnetization       =    -0.00 Bohr mag/cell
     absolute magnetization    =     0.00 Bohr mag/cell

     iteration # 26     ecut=    50.00 Ry     beta= 0.01
     Davidson diagonalization with overlap

---- Real-time Memory Report at c_bands before calling an iterative solver
          1673 MiB given to the printing process from OS
          1447 MiB allocation reported by mallinfo(arena+hblkhd)
        310119 MiB available memory on the node where the printing process lives
------------------
     ethr =  1.11E-05,  avg # of iterations =  1.0

     negative rho (up, down):  1.105E-01 1.105E-01

     total cpu time spent up to now is     1391.2 secs

     total energy              =   -1236.05966024 Ry
     estimated scf accuracy    <       0.04900192 Ry

     total magnetization       =     0.00 Bohr mag/cell
     absolute magnetization    =     0.00 Bohr mag/cell

     iteration # 27     ecut=    50.00 Ry     beta= 0.01
     Davidson diagonalization with overlap

---- Real-time Memory Report at c_bands before calling an iterative solver
          1674 MiB given to the printing process from OS
          1447 MiB allocation reported by mallinfo(arena+hblkhd)
        310000 MiB available memory on the node where the printing process lives
------------------
     ethr =  1.11E-05,  avg # of iterations =  1.0

     negative rho (up, down):  1.111E-01 1.111E-01

     total cpu time spent up to now is     1435.1 secs

     total energy              =   -1236.06521210 Ry
     estimated scf accuracy    <       0.04908185 Ry

     total magnetization       =    -0.00 Bohr mag/cell
     absolute magnetization    =     0.00 Bohr mag/cell

     iteration # 28     ecut=    50.00 Ry     beta= 0.01
     Davidson diagonalization with overlap

---- Real-time Memory Report at c_bands before calling an iterative solver
          1674 MiB given to the printing process from OS
          1447 MiB allocation reported by mallinfo(arena+hblkhd)
        310469 MiB available memory on the node where the printing process lives
------------------
     ethr =  1.11E-05,  avg # of iterations =  1.0

     negative rho (up, down):  1.152E-01 1.151E-01

     total cpu time spent up to now is     1478.7 secs

     total energy              =   -1236.02983329 Ry
     estimated scf accuracy    <       0.06691497 Ry

     total magnetization       =    -0.00 Bohr mag/cell
     absolute magnetization    =     0.00 Bohr mag/cell

     iteration # 29     ecut=    50.00 Ry     beta= 0.01
     Davidson diagonalization with overlap

---- Real-time Memory Report at c_bands before calling an iterative solver
          1675 MiB given to the printing process from OS
          1447 MiB allocation reported by mallinfo(arena+hblkhd)
        310538 MiB available memory on the node where the printing process lives
------------------
     ethr =  1.11E-05,  avg # of iterations =  2.0

     negative rho (up, down):  1.088E-01 1.088E-01

     total cpu time spent up to now is     1536.9 secs

     total energy              =   -1236.04501679 Ry
     estimated scf accuracy    <       0.00809610 Ry

     total magnetization       =     0.00 Bohr mag/cell
     absolute magnetization    =     0.00 Bohr mag/cell

     iteration # 30     ecut=    50.00 Ry     beta= 0.01
     Davidson diagonalization with overlap

---- Real-time Memory Report at c_bands before calling an iterative solver
          1675 MiB given to the printing process from OS
          1447 MiB allocation reported by mallinfo(arena+hblkhd)
        310563 MiB available memory on the node where the printing process lives
------------------
     ethr =  3.26E-06,  avg # of iterations = 11.9

     negative rho (up, down):  1.053E-01 1.053E-01

     total cpu time spent up to now is     1593.7 secs

     total energy              =   -1236.04285278 Ry
     estimated scf accuracy    <       0.01370902 Ry

     total magnetization       =    -0.00 Bohr mag/cell
     absolute magnetization    =     0.00 Bohr mag/cell

     iteration # 31     ecut=    50.00 Ry     beta= 0.01
     Davidson diagonalization with overlap

---- Real-time Memory Report at c_bands before calling an iterative solver
          1675 MiB given to the printing process from OS
          1447 MiB allocation reported by mallinfo(arena+hblkhd)
        310619 MiB available memory on the node where the printing process lives
------------------
     ethr =  3.26E-06,  avg # of iterations =  2.1

     negative rho (up, down):  1.035E-01 1.035E-01

     total cpu time spent up to now is     1640.8 secs

     total energy              =   -1236.04204045 Ry
     estimated scf accuracy    <       0.00991345 Ry

     total magnetization       =     0.00 Bohr mag/cell
     absolute magnetization    =     0.00 Bohr mag/cell

     iteration # 32     ecut=    50.00 Ry     beta= 0.01
     Davidson diagonalization with overlap

---- Real-time Memory Report at c_bands before calling an iterative solver
          1675 MiB given to the printing process from OS
          1447 MiB allocation reported by mallinfo(arena+hblkhd)
        310556 MiB available memory on the node where the printing process lives
------------------
     ethr =  3.26E-06,  avg # of iterations =  8.8

     negative rho (up, down):  1.055E-01 1.055E-01

     total cpu time spent up to now is     1698.8 secs

     total energy              =   -1236.03896662 Ry
     estimated scf accuracy    <       0.00937882 Ry

     total magnetization       =    -0.00 Bohr mag/cell
     absolute magnetization    =     0.00 Bohr mag/cell

     iteration # 33     ecut=    50.00 Ry     beta= 0.01
     Davidson diagonalization with overlap

---- Real-time Memory Report at c_bands before calling an iterative solver
          1675 MiB given to the printing process from OS
          1447 MiB allocation reported by mallinfo(arena+hblkhd)
        310577 MiB available memory on the node where the printing process lives
------------------
     ethr =  3.26E-06,  avg # of iterations =  2.0

     negative rho (up, down):  1.054E-01 1.054E-01

     total cpu time spent up to now is     1748.9 secs

     total energy              =   -1236.03995943 Ry
     estimated scf accuracy    <       0.00408070 Ry

     total magnetization       =    -0.00 Bohr mag/cell
     absolute magnetization    =     0.00 Bohr mag/cell

     iteration # 34     ecut=    50.00 Ry     beta= 0.01
     Davidson diagonalization with overlap

---- Real-time Memory Report at c_bands before calling an iterative solver
          1675 MiB given to the printing process from OS
          1447 MiB allocation reported by mallinfo(arena+hblkhd)
        310456 MiB available memory on the node where the printing process lives
------------------
     ethr =  1.65E-06,  avg # of iterations =  1.0

     negative rho (up, down):  1.038E-01 1.038E-01

     total cpu time spent up to now is     1792.5 secs

     total energy              =   -1236.04007289 Ry
     estimated scf accuracy    <       0.00430050 Ry

     total magnetization       =    -0.00 Bohr mag/cell
     absolute magnetization    =     0.00 Bohr mag/cell

     iteration # 35     ecut=    50.00 Ry     beta= 0.01
     Davidson diagonalization with overlap

---- Real-time Memory Report at c_bands before calling an iterative solver
          1675 MiB given to the printing process from OS
          1447 MiB allocation reported by mallinfo(arena+hblkhd)
        310534 MiB available memory on the node where the printing process lives
------------------
     ethr =  1.65E-06,  avg # of iterations =  1.0

     negative rho (up, down):  1.036E-01 1.036E-01

     total cpu time spent up to now is     1836.5 secs

     total energy              =   -1236.04024509 Ry
     estimated scf accuracy    <       0.00476044 Ry

     total magnetization       =     0.00 Bohr mag/cell
     absolute magnetization    =     0.00 Bohr mag/cell

     iteration # 36     ecut=    50.00 Ry     beta= 0.01
     Davidson diagonalization with overlap

---- Real-time Memory Report at c_bands before calling an iterative solver
          1675 MiB given to the printing process from OS
          1447 MiB allocation reported by mallinfo(arena+hblkhd)
        310598 MiB available memory on the node where the printing process lives
------------------
     ethr =  1.65E-06,  avg # of iterations =  1.0

     negative rho (up, down):  1.021E-01 1.021E-01

     total cpu time spent up to now is     1880.5 secs

     total energy              =   -1236.04191229 Ry
     estimated scf accuracy    <       0.00500674 Ry

     total magnetization       =     0.00 Bohr mag/cell
     absolute magnetization    =     0.00 Bohr mag/cell

     iteration # 37     ecut=    50.00 Ry     beta= 0.01
     Davidson diagonalization with overlap

---- Real-time Memory Report at c_bands before calling an iterative solver
          1675 MiB given to the printing process from OS
          1447 MiB allocation reported by mallinfo(arena+hblkhd)
        310558 MiB available memory on the node where the printing process lives
------------------
     ethr =  1.65E-06,  avg # of iterations =  5.1

     negative rho (up, down):  1.011E-01 1.010E-01

     total cpu time spent up to now is     1945.6 secs

     total energy              =   -1236.04486793 Ry
     estimated scf accuracy    <       0.00818819 Ry

     total magnetization       =    -0.00 Bohr mag/cell
     absolute magnetization    =     0.00 Bohr mag/cell

     iteration # 38     ecut=    50.00 Ry     beta= 0.01
     Davidson diagonalization with overlap

---- Real-time Memory Report at c_bands before calling an iterative solver
          1675 MiB given to the printing process from OS
          1447 MiB allocation reported by mallinfo(arena+hblkhd)
        310669 MiB available memory on the node where the printing process lives
------------------
     ethr =  1.65E-06,  avg # of iterations =  3.0

     negative rho (up, down):  1.033E-01 1.032E-01

     total cpu time spent up to now is     2005.1 secs

     total energy              =   -1236.04368089 Ry
     estimated scf accuracy    <       0.01824633 Ry

     total magnetization       =    -0.00 Bohr mag/cell
     absolute magnetization    =     0.00 Bohr mag/cell

     iteration # 39     ecut=    50.00 Ry     beta= 0.01
     Davidson diagonalization with overlap

---- Real-time Memory Report at c_bands before calling an iterative solver
          1675 MiB given to the printing process from OS
          1447 MiB allocation reported by mallinfo(arena+hblkhd)
        308380 MiB available memory on the node where the printing process lives
------------------
     ethr =  1.65E-06,  avg # of iterations =  1.0

     negative rho (up, down):  9.920E-02 9.914E-02

     total cpu time spent up to now is     2048.7 secs

     total energy              =   -1236.04744052 Ry
     estimated scf accuracy    <       0.01160391 Ry

     total magnetization       =    -0.00 Bohr mag/cell
     absolute magnetization    =     0.00 Bohr mag/cell

     iteration # 40     ecut=    50.00 Ry     beta= 0.01
     Davidson diagonalization with overlap

---- Real-time Memory Report at c_bands before calling an iterative solver
          1675 MiB given to the printing process from OS
          1447 MiB allocation reported by mallinfo(arena+hblkhd)
        308440 MiB available memory on the node where the printing process lives
------------------
     ethr =  1.65E-06,  avg # of iterations =  2.0

     negative rho (up, down):  1.013E-01 1.012E-01

     total cpu time spent up to now is     2101.7 secs

     total energy              =   -1236.05645063 Ry
     estimated scf accuracy    <       0.02400729 Ry

     total magnetization       =     0.00 Bohr mag/cell
     absolute magnetization    =     0.00 Bohr mag/cell

     iteration # 41     ecut=    50.00 Ry     beta= 0.01
     Davidson diagonalization with overlap

---- Real-time Memory Report at c_bands before calling an iterative solver
          1675 MiB given to the printing process from OS
          1447 MiB allocation reported by mallinfo(arena+hblkhd)
        308469 MiB available memory on the node where the printing process lives
------------------
     ethr =  1.65E-06,  avg # of iterations =  3.0

     negative rho (up, down):  9.641E-02 9.635E-02

     total cpu time spent up to now is     2165.5 secs

     total energy              =   -1236.06265769 Ry
     estimated scf accuracy    <       0.06484787 Ry

     total magnetization       =    -0.00 Bohr mag/cell
     absolute magnetization    =     0.00 Bohr mag/cell

     iteration # 42     ecut=    50.00 Ry     beta= 0.01
     Davidson diagonalization with overlap

---- Real-time Memory Report at c_bands before calling an iterative solver
          1675 MiB given to the printing process from OS
          1447 MiB allocation reported by mallinfo(arena+hblkhd)
        308571 MiB available memory on the node where the printing process lives
------------------
     ethr =  1.65E-06,  avg # of iterations =  2.0

     negative rho (up, down):  9.529E-02 9.525E-02

     total cpu time spent up to now is     2212.6 secs

     total energy              =   -1236.03964832 Ry
     estimated scf accuracy    <       0.07564771 Ry

     total magnetization       =    -0.00 Bohr mag/cell
     absolute magnetization    =     0.01 Bohr mag/cell

     iteration # 43     ecut=    50.00 Ry     beta= 0.01
     Davidson diagonalization with overlap

---- Real-time Memory Report at c_bands before calling an iterative solver
          1675 MiB given to the printing process from OS
          1447 MiB allocation reported by mallinfo(arena+hblkhd)
        308198 MiB available memory on the node where the printing process lives
------------------
     ethr =  1.65E-06,  avg # of iterations =  5.0

     negative rho (up, down):  9.518E-02 9.515E-02

     total cpu time spent up to now is     2280.5 secs

     total energy              =   -1236.04226012 Ry
     estimated scf accuracy    <       0.01778606 Ry

     total magnetization       =    -0.00 Bohr mag/cell
     absolute magnetization    =     0.00 Bohr mag/cell

     iteration # 44     ecut=    50.00 Ry     beta= 0.01
     Davidson diagonalization with overlap

---- Real-time Memory Report at c_bands before calling an iterative solver
          1675 MiB given to the printing process from OS
          1447 MiB allocation reported by mallinfo(arena+hblkhd)
        308294 MiB available memory on the node where the printing process lives
------------------
     ethr =  1.65E-06,  avg # of iterations =  2.0

     negative rho (up, down):  9.744E-02 9.745E-02

     total cpu time spent up to now is     2329.4 secs

     total energy              =   -1236.04214538 Ry
     estimated scf accuracy    <       0.01125651 Ry

     total magnetization       =     0.00 Bohr mag/cell
     absolute magnetization    =     0.00 Bohr mag/cell

     iteration # 45     ecut=    50.00 Ry     beta= 0.01
     Davidson diagonalization with overlap

---- Real-time Memory Report at c_bands before calling an iterative solver
          1675 MiB given to the printing process from OS
          1447 MiB allocation reported by mallinfo(arena+hblkhd)
        308363 MiB available memory on the node where the printing process lives
------------------
     ethr =  1.65E-06,  avg # of iterations =  5.6

     negative rho (up, down):  9.591E-02 9.592E-02

     total cpu time spent up to now is     2381.4 secs

     total energy              =   -1236.04096250 Ry
     estimated scf accuracy    <       0.00631023 Ry

     total magnetization       =    -0.00 Bohr mag/cell
     absolute magnetization    =     0.00 Bohr mag/cell

     iteration # 46     ecut=    50.00 Ry     beta= 0.01
     Davidson diagonalization with overlap

---- Real-time Memory Report at c_bands before calling an iterative solver
          1675 MiB given to the printing process from OS
          1447 MiB allocation reported by mallinfo(arena+hblkhd)
        308288 MiB available memory on the node where the printing process lives
------------------
     ethr =  1.65E-06,  avg # of iterations =  2.5

     negative rho (up, down):  9.810E-02 9.811E-02

     total cpu time spent up to now is     2440.1 secs

     total energy              =   -1236.04066258 Ry
     estimated scf accuracy    <       0.00572982 Ry

     total magnetization       =     0.00 Bohr mag/cell
     absolute magnetization    =     0.00 Bohr mag/cell

     iteration # 47     ecut=    50.00 Ry     beta= 0.01
     Davidson diagonalization with overlap

---- Real-time Memory Report at c_bands before calling an iterative solver
          1675 MiB given to the printing process from OS
          1447 MiB allocation reported by mallinfo(arena+hblkhd)
        308042 MiB available memory on the node where the printing process lives
------------------
     ethr =  1.65E-06,  avg # of iterations =  2.0

     negative rho (up, down):  9.769E-02 9.771E-02

     total cpu time spent up to now is     2497.4 secs

     total energy              =   -1236.04171366 Ry
     estimated scf accuracy    <       0.00526559 Ry

     total magnetization       =    -0.00 Bohr mag/cell
     absolute magnetization    =     0.00 Bohr mag/cell

     iteration # 48     ecut=    50.00 Ry     beta= 0.01
     Davidson diagonalization with overlap

---- Real-time Memory Report at c_bands before calling an iterative solver
          1675 MiB given to the printing process from OS
          1447 MiB allocation reported by mallinfo(arena+hblkhd)
        308289 MiB available memory on the node where the printing process lives
------------------
     ethr =  1.65E-06,  avg # of iterations =  1.0

     negative rho (up, down):  9.004E-02 9.002E-02

     total cpu time spent up to now is     2541.0 secs

     total energy              =   -1236.04908329 Ry
     estimated scf accuracy    <       0.00340049 Ry

     total magnetization       =     0.00 Bohr mag/cell
     absolute magnetization    =     0.00 Bohr mag/cell

     iteration # 49     ecut=    50.00 Ry     beta= 0.01
     Davidson diagonalization with overlap

---- Real-time Memory Report at c_bands before calling an iterative solver
          1675 MiB given to the printing process from OS
          1447 MiB allocation reported by mallinfo(arena+hblkhd)
        308013 MiB available memory on the node where the printing process lives
------------------
     ethr =  1.37E-06,  avg # of iterations =  7.0

     negative rho (up, down):  9.143E-02 9.141E-02

     total cpu time spent up to now is     2614.3 secs

     total energy              =   -1236.04637882 Ry
     estimated scf accuracy    <       0.05100554 Ry

     total magnetization       =    -0.00 Bohr mag/cell
     absolute magnetization    =     0.00 Bohr mag/cell

     iteration # 50     ecut=    50.00 Ry     beta= 0.01
     Davidson diagonalization with overlap

---- Real-time Memory Report at c_bands before calling an iterative solver
          1675 MiB given to the printing process from OS
          1447 MiB allocation reported by mallinfo(arena+hblkhd)
        308214 MiB available memory on the node where the printing process lives
------------------
     ethr =  1.37E-06,  avg # of iterations =  4.0

     negative rho (up, down):  9.115E-02 9.114E-02

     total cpu time spent up to now is     2675.4 secs

     total energy              =   -1236.04960053 Ry
     estimated scf accuracy    <       0.02462650 Ry

     total magnetization       =     0.00 Bohr mag/cell
     absolute magnetization    =     0.00 Bohr mag/cell

     iteration # 51     ecut=    50.00 Ry     beta= 0.01
     Davidson diagonalization with overlap

---- Real-time Memory Report at c_bands before calling an iterative solver
          1675 MiB given to the printing process from OS
          1447 MiB allocation reported by mallinfo(arena+hblkhd)
        308279 MiB available memory on the node where the printing process lives
------------------
     ethr =  1.37E-06,  avg # of iterations =  5.0

     negative rho (up, down):  9.095E-02 9.094E-02

     total cpu time spent up to now is     2725.4 secs

     total energy              =   -1236.04427336 Ry
     estimated scf accuracy    <       0.03041373 Ry

     total magnetization       =    -0.00 Bohr mag/cell
     absolute magnetization    =     0.00 Bohr mag/cell

     iteration # 52     ecut=    50.00 Ry     beta= 0.01
     Davidson diagonalization with overlap

---- Real-time Memory Report at c_bands before calling an iterative solver
          1675 MiB given to the printing process from OS
          1447 MiB allocation reported by mallinfo(arena+hblkhd)
        308242 MiB available memory on the node where the printing process lives
------------------
     ethr =  1.37E-06,  avg # of iterations =  6.0

     negative rho (up, down):  8.989E-02 8.988E-02

     total cpu time spent up to now is     2787.7 secs

     total energy              =   -1236.04364815 Ry
     estimated scf accuracy    <       0.01565676 Ry

     total magnetization       =     0.00 Bohr mag/cell
     absolute magnetization    =     0.00 Bohr mag/cell

     iteration # 53     ecut=    50.00 Ry     beta= 0.01
     Davidson diagonalization with overlap

---- Real-time Memory Report at c_bands before calling an iterative solver
          1675 MiB given to the printing process from OS
          1447 MiB allocation reported by mallinfo(arena+hblkhd)
        308107 MiB available memory on the node where the printing process lives
------------------
     ethr =  1.37E-06,  avg # of iterations =  2.0

     negative rho (up, down):  8.965E-02 8.964E-02

     total cpu time spent up to now is     2834.8 secs

     total energy              =   -1236.04208546 Ry
     estimated scf accuracy    <       0.01025714 Ry

     total magnetization       =     0.00 Bohr mag/cell
     absolute magnetization    =     0.00 Bohr mag/cell

     iteration # 54     ecut=    50.00 Ry     beta= 0.01
     Davidson diagonalization with overlap

---- Real-time Memory Report at c_bands before calling an iterative solver
          1675 MiB given to the printing process from OS
          1447 MiB allocation reported by mallinfo(arena+hblkhd)
        308123 MiB available memory on the node where the printing process lives
------------------
     ethr =  1.37E-06,  avg # of iterations =  2.0

     negative rho (up, down):  8.479E-02 8.478E-02

     total cpu time spent up to now is     2885.0 secs

     total energy              =   -1236.04096898 Ry
     estimated scf accuracy    <       0.00473654 Ry

     total magnetization       =    -0.00 Bohr mag/cell
     absolute magnetization    =     0.00 Bohr mag/cell

     iteration # 55     ecut=    50.00 Ry     beta= 0.01
     Davidson diagonalization with overlap

---- Real-time Memory Report at c_bands before calling an iterative solver
          1675 MiB given to the printing process from OS
          1447 MiB allocation reported by mallinfo(arena+hblkhd)
        308005 MiB available memory on the node where the printing process lives
------------------
     ethr =  1.37E-06,  avg # of iterations =  3.0

     negative rho (up, down):  7.419E-02 7.419E-02

     total cpu time spent up to now is     2943.0 secs

     total energy              =   -1236.04287201 Ry
     estimated scf accuracy    <       0.00351423 Ry

     total magnetization       =    -0.00 Bohr mag/cell
     absolute magnetization    =     0.00 Bohr mag/cell

     iteration # 56     ecut=    50.00 Ry     beta= 0.01
     Davidson diagonalization with overlap

---- Real-time Memory Report at c_bands before calling an iterative solver
          1675 MiB given to the printing process from OS
          1447 MiB allocation reported by mallinfo(arena+hblkhd)
        308042 MiB available memory on the node where the printing process lives
------------------
     ethr =  1.37E-06,  avg # of iterations = 12.6

     negative rho (up, down):  7.344E-02 7.343E-02

     total cpu time spent up to now is     3002.4 secs

     total energy              =   -1236.04362321 Ry
     estimated scf accuracy    <       0.00570434 Ry

     total magnetization       =    -0.00 Bohr mag/cell
     absolute magnetization    =     0.00 Bohr mag/cell

     iteration # 57     ecut=    50.00 Ry     beta= 0.01
     Davidson diagonalization with overlap

---- Real-time Memory Report at c_bands before calling an iterative solver
          1675 MiB given to the printing process from OS
          1447 MiB allocation reported by mallinfo(arena+hblkhd)
        308308 MiB available memory on the node where the printing process lives
------------------
     ethr =  1.37E-06,  avg # of iterations =  1.0

     negative rho (up, down):  7.317E-02 7.317E-02

     total cpu time spent up to now is     3046.0 secs

     total energy              =   -1236.04344696 Ry
     estimated scf accuracy    <       0.00718001 Ry

     total magnetization       =    -0.00 Bohr mag/cell
     absolute magnetization    =     0.00 Bohr mag/cell

     iteration # 58     ecut=    50.00 Ry     beta= 0.01
     Davidson diagonalization with overlap

---- Real-time Memory Report at c_bands before calling an iterative solver
          1675 MiB given to the printing process from OS
          1447 MiB allocation reported by mallinfo(arena+hblkhd)
        308045 MiB available memory on the node where the printing process lives
------------------
     ethr =  1.37E-06,  avg # of iterations =  1.0

     negative rho (up, down):  7.431E-02 7.431E-02

     total cpu time spent up to now is     3089.9 secs

     total energy              =   -1236.04569289 Ry
     estimated scf accuracy    <       0.00682194 Ry

     total magnetization       =    -0.00 Bohr mag/cell
     absolute magnetization    =     0.00 Bohr mag/cell

     iteration # 59     ecut=    50.00 Ry     beta= 0.01
     Davidson diagonalization with overlap

---- Real-time Memory Report at c_bands before calling an iterative solver
          1675 MiB given to the printing process from OS
          1447 MiB allocation reported by mallinfo(arena+hblkhd)
        308543 MiB available memory on the node where the printing process lives
------------------
     ethr =  1.37E-06,  avg # of iterations =  2.0

     negative rho (up, down):  7.088E-02 7.088E-02

     total cpu time spent up to now is     3141.8 secs

     total energy              =   -1236.04243847 Ry
     estimated scf accuracy    <       0.01523277 Ry

     total magnetization       =     0.00 Bohr mag/cell
     absolute magnetization    =     0.00 Bohr mag/cell

     iteration # 60     ecut=    50.00 Ry     beta= 0.01
     Davidson diagonalization with overlap

---- Real-time Memory Report at c_bands before calling an iterative solver
          1675 MiB given to the printing process from OS
          1447 MiB allocation reported by mallinfo(arena+hblkhd)
        308237 MiB available memory on the node where the printing process lives
------------------
     ethr =  1.37E-06,  avg # of iterations =  6.0

     negative rho (up, down):  6.687E-02 6.686E-02

     total cpu time spent up to now is     3198.8 secs

     total energy              =   -1236.04215006 Ry
     estimated scf accuracy    <       0.00648276 Ry

     total magnetization       =     0.00 Bohr mag/cell
     absolute magnetization    =     0.00 Bohr mag/cell

     iteration # 61     ecut=    50.00 Ry     beta= 0.01
     Davidson diagonalization with overlap

---- Real-time Memory Report at c_bands before calling an iterative solver
          1675 MiB given to the printing process from OS
          1447 MiB allocation reported by mallinfo(arena+hblkhd)
        308636 MiB available memory on the node where the printing process lives
------------------
     ethr =  1.37E-06,  avg # of iterations =  4.0

     negative rho (up, down):  6.566E-02 6.566E-02

     total cpu time spent up to now is     3247.6 secs

     total energy              =   -1236.04169308 Ry
     estimated scf accuracy    <       0.00467750 Ry

     total magnetization       =     0.00 Bohr mag/cell
     absolute magnetization    =     0.00 Bohr mag/cell

     iteration # 62     ecut=    50.00 Ry     beta= 0.01
     Davidson diagonalization with overlap

---- Real-time Memory Report at c_bands before calling an iterative solver
          1675 MiB given to the printing process from OS
          1447 MiB allocation reported by mallinfo(arena+hblkhd)
        308607 MiB available memory on the node where the printing process lives
------------------
     ethr =  1.37E-06,  avg # of iterations =  1.0

     negative rho (up, down):  6.682E-02 6.681E-02

     total cpu time spent up to now is     3291.6 secs

     total energy              =   -1236.04165832 Ry
     estimated scf accuracy    <       0.00302377 Ry

     total magnetization       =    -0.00 Bohr mag/cell
     absolute magnetization    =     0.00 Bohr mag/cell

     iteration # 63     ecut=    50.00 Ry     beta= 0.01
     Davidson diagonalization with overlap

---- Real-time Memory Report at c_bands before calling an iterative solver
          1675 MiB given to the printing process from OS
          1447 MiB allocation reported by mallinfo(arena+hblkhd)
        308642 MiB available memory on the node where the printing process lives
------------------
     ethr =  1.22E-06,  avg # of iterations =  1.0

     negative rho (up, down):  6.581E-02 6.580E-02

     total cpu time spent up to now is     3335.3 secs

     total energy              =   -1236.04163643 Ry
     estimated scf accuracy    <       0.00246488 Ry

     total magnetization       =     0.00 Bohr mag/cell
     absolute magnetization    =     0.00 Bohr mag/cell

     iteration # 64     ecut=    50.00 Ry     beta= 0.01
     Davidson diagonalization with overlap

---- Real-time Memory Report at c_bands before calling an iterative solver
          1675 MiB given to the printing process from OS
          1447 MiB allocation reported by mallinfo(arena+hblkhd)
        308733 MiB available memory on the node where the printing process lives
------------------
     ethr =  9.94E-07,  avg # of iterations =  1.0

     negative rho (up, down):  6.753E-02 6.752E-02

     total cpu time spent up to now is     3379.0 secs

     total energy              =   -1236.04150066 Ry
     estimated scf accuracy    <       0.00222972 Ry

     total magnetization       =    -0.00 Bohr mag/cell
     absolute magnetization    =     0.00 Bohr mag/cell

     iteration # 65     ecut=    50.00 Ry     beta= 0.01
     Davidson diagonalization with overlap

---- Real-time Memory Report at c_bands before calling an iterative solver
          1675 MiB given to the printing process from OS
          1447 MiB allocation reported by mallinfo(arena+hblkhd)
        308696 MiB available memory on the node where the printing process lives
------------------
     ethr =  8.99E-07,  avg # of iterations =  2.0

     negative rho (up, down):  6.572E-02 6.572E-02

     total cpu time spent up to now is     3427.1 secs

     total energy              =   -1236.04167663 Ry
     estimated scf accuracy    <       0.00165571 Ry

     total magnetization       =    -0.00 Bohr mag/cell
     absolute magnetization    =     0.00 Bohr mag/cell

     iteration # 66     ecut=    50.00 Ry     beta= 0.01
     Davidson diagonalization with overlap

---- Real-time Memory Report at c_bands before calling an iterative solver
          1675 MiB given to the printing process from OS
          1447 MiB allocation reported by mallinfo(arena+hblkhd)
        308571 MiB available memory on the node where the printing process lives
------------------
     ethr =  6.68E-07,  avg # of iterations =  3.5

     negative rho (up, down):  6.466E-02 6.465E-02

     total cpu time spent up to now is     3475.5 secs

     total energy              =   -1236.04175084 Ry
     estimated scf accuracy    <       0.00164075 Ry

     total magnetization       =     0.00 Bohr mag/cell
     absolute magnetization    =     0.00 Bohr mag/cell

     iteration # 67     ecut=    50.00 Ry     beta= 0.01
     Davidson diagonalization with overlap

---- Real-time Memory Report at c_bands before calling an iterative solver
          1675 MiB given to the printing process from OS
          1447 MiB allocation reported by mallinfo(arena+hblkhd)
        308749 MiB available memory on the node where the printing process lives
------------------
     ethr =  6.62E-07,  avg # of iterations =  1.0

     negative rho (up, down):  6.442E-02 6.441E-02

     total cpu time spent up to now is     3519.1 secs

     total energy              =   -1236.04178586 Ry
     estimated scf accuracy    <       0.00173109 Ry

     total magnetization       =    -0.00 Bohr mag/cell
     absolute magnetization    =     0.00 Bohr mag/cell

     iteration # 68     ecut=    50.00 Ry     beta= 0.01
     Davidson diagonalization with overlap

---- Real-time Memory Report at c_bands before calling an iterative solver
          1675 MiB given to the printing process from OS
          1447 MiB allocation reported by mallinfo(arena+hblkhd)
        308535 MiB available memory on the node where the printing process lives
------------------
     ethr =  6.62E-07,  avg # of iterations =  1.2

     negative rho (up, down):  6.445E-02 6.444E-02

     total cpu time spent up to now is     3564.0 secs

     total energy              =   -1236.04175602 Ry
     estimated scf accuracy    <       0.00162018 Ry

     total magnetization       =    -0.00 Bohr mag/cell
     absolute magnetization    =     0.00 Bohr mag/cell

     iteration # 69     ecut=    50.00 Ry     beta= 0.01
     Davidson diagonalization with overlap

---- Real-time Memory Report at c_bands before calling an iterative solver
          1675 MiB given to the printing process from OS
          1447 MiB allocation reported by mallinfo(arena+hblkhd)
        308480 MiB available memory on the node where the printing process lives
------------------
     ethr =  6.53E-07,  avg # of iterations =  1.0

     negative rho (up, down):  6.440E-02 6.440E-02

     total cpu time spent up to now is     3607.8 secs

     total energy              =   -1236.04178518 Ry
     estimated scf accuracy    <       0.00153836 Ry

     total magnetization       =     0.00 Bohr mag/cell
     absolute magnetization    =     0.00 Bohr mag/cell

     iteration # 70     ecut=    50.00 Ry     beta= 0.01
     Davidson diagonalization with overlap

---- Real-time Memory Report at c_bands before calling an iterative solver
          1675 MiB given to the printing process from OS
          1447 MiB allocation reported by mallinfo(arena+hblkhd)
        308546 MiB available memory on the node where the printing process lives
------------------
     ethr =  6.20E-07,  avg # of iterations =  1.0

     negative rho (up, down):  6.486E-02 6.486E-02

     total cpu time spent up to now is     3651.4 secs

     total energy              =   -1236.04183100 Ry
     estimated scf accuracy    <       0.00151421 Ry

     total magnetization       =    -0.00 Bohr mag/cell
     absolute magnetization    =     0.00 Bohr mag/cell

     iteration # 71     ecut=    50.00 Ry     beta= 0.01
     Davidson diagonalization with overlap

---- Real-time Memory Report at c_bands before calling an iterative solver
          1675 MiB given to the printing process from OS
          1447 MiB allocation reported by mallinfo(arena+hblkhd)
        308857 MiB available memory on the node where the printing process lives
------------------
     ethr =  6.11E-07,  avg # of iterations =  1.0

     negative rho (up, down):  6.351E-02 6.351E-02

     total cpu time spent up to now is     3695.3 secs

     total energy              =   -1236.04181185 Ry
     estimated scf accuracy    <       0.00151950 Ry

     total magnetization       =     0.00 Bohr mag/cell
     absolute magnetization    =     0.00 Bohr mag/cell

     iteration # 72     ecut=    50.00 Ry     beta= 0.01
     Davidson diagonalization with overlap

---- Real-time Memory Report at c_bands before calling an iterative solver
          1675 MiB given to the printing process from OS
          1447 MiB allocation reported by mallinfo(arena+hblkhd)
        308665 MiB available memory on the node where the printing process lives
------------------
     ethr =  6.11E-07,  avg # of iterations =  1.0

     negative rho (up, down):  5.868E-02 5.868E-02

     total cpu time spent up to now is     3739.0 secs

     total energy              =   -1236.04178348 Ry
     estimated scf accuracy    <       0.00152275 Ry

     total magnetization       =    -0.00 Bohr mag/cell
     absolute magnetization    =     0.00 Bohr mag/cell

     iteration # 73     ecut=    50.00 Ry     beta= 0.01
     Davidson diagonalization with overlap

---- Real-time Memory Report at c_bands before calling an iterative solver
          1675 MiB given to the printing process from OS
          1447 MiB allocation reported by mallinfo(arena+hblkhd)
        308372 MiB available memory on the node where the printing process lives
------------------
     ethr =  6.11E-07,  avg # of iterations =  4.2

     negative rho (up, down):  6.216E-02 6.216E-02

     total cpu time spent up to now is     3796.8 secs

     total energy              =   -1236.04135180 Ry
     estimated scf accuracy    <       0.00255003 Ry

     total magnetization       =    -0.00 Bohr mag/cell
     absolute magnetization    =     0.00 Bohr mag/cell

     iteration # 74     ecut=    50.00 Ry     beta= 0.01
     Davidson diagonalization with overlap

---- Real-time Memory Report at c_bands before calling an iterative solver
          1675 MiB given to the printing process from OS
          1447 MiB allocation reported by mallinfo(arena+hblkhd)
        308432 MiB available memory on the node where the printing process lives
------------------
     ethr =  6.11E-07,  avg # of iterations =  5.0

     negative rho (up, down):  6.835E-02 6.835E-02

     total cpu time spent up to now is     3858.9 secs

     total energy              =   -1236.04129621 Ry
     estimated scf accuracy    <       0.00437739 Ry

     total magnetization       =    -0.00 Bohr mag/cell
     absolute magnetization    =     0.00 Bohr mag/cell

     iteration # 75     ecut=    50.00 Ry     beta= 0.01
     Davidson diagonalization with overlap

---- Real-time Memory Report at c_bands before calling an iterative solver
          1675 MiB given to the printing process from OS
          1447 MiB allocation reported by mallinfo(arena+hblkhd)
        308645 MiB available memory on the node where the printing process lives
------------------
     ethr =  6.11E-07,  avg # of iterations =  4.2

     negative rho (up, down):  6.671E-02 6.671E-02

     total cpu time spent up to now is     3920.0 secs

     total energy              =   -1236.04180531 Ry
     estimated scf accuracy    <       0.00138111 Ry

     total magnetization       =    -0.00 Bohr mag/cell
     absolute magnetization    =     0.00 Bohr mag/cell

     iteration # 76     ecut=    50.00 Ry     beta= 0.01
     Davidson diagonalization with overlap

---- Real-time Memory Report at c_bands before calling an iterative solver
          1675 MiB given to the printing process from OS
          1447 MiB allocation reported by mallinfo(arena+hblkhd)
        308432 MiB available memory on the node where the printing process lives
------------------
     ethr =  5.57E-07,  avg # of iterations =  1.0

     negative rho (up, down):  6.538E-02 6.538E-02

     total cpu time spent up to now is     3963.8 secs

     total energy              =   -1236.04180653 Ry
     estimated scf accuracy    <       0.00142581 Ry

     total magnetization       =     0.00 Bohr mag/cell
     absolute magnetization    =     0.00 Bohr mag/cell

     iteration # 77     ecut=    50.00 Ry     beta= 0.01
     Davidson diagonalization with overlap

---- Real-time Memory Report at c_bands before calling an iterative solver
          1675 MiB given to the printing process from OS
          1447 MiB allocation reported by mallinfo(arena+hblkhd)
        308556 MiB available memory on the node where the printing process lives
------------------
     ethr =  5.57E-07,  avg # of iterations =  1.0

     negative rho (up, down):  6.411E-02 6.411E-02

     total cpu time spent up to now is     4007.2 secs

     total energy              =   -1236.04198280 Ry
     estimated scf accuracy    <       0.00135143 Ry

     total magnetization       =    -0.00 Bohr mag/cell
     absolute magnetization    =     0.00 Bohr mag/cell

     iteration # 78     ecut=    50.00 Ry     beta= 0.01
     Davidson diagonalization with overlap

---- Real-time Memory Report at c_bands before calling an iterative solver
          1675 MiB given to the printing process from OS
          1447 MiB allocation reported by mallinfo(arena+hblkhd)
        308341 MiB available memory on the node where the printing process lives
------------------
     ethr =  5.45E-07,  avg # of iterations =  2.0

     negative rho (up, down):  5.575E-02 5.574E-02

     total cpu time spent up to now is     4064.0 secs

     total energy              =   -1236.04101023 Ry
     estimated scf accuracy    <       0.00268957 Ry

     total magnetization       =    -0.00 Bohr mag/cell
     absolute magnetization    =     0.00 Bohr mag/cell

     iteration # 79     ecut=    50.00 Ry     beta= 0.01
     Davidson diagonalization with overlap

---- Real-time Memory Report at c_bands before calling an iterative solver
          1675 MiB given to the printing process from OS
          1447 MiB allocation reported by mallinfo(arena+hblkhd)
        308188 MiB available memory on the node where the printing process lives
------------------
     ethr =  5.45E-07,  avg # of iterations =  2.0

     negative rho (up, down):  5.899E-02 5.898E-02

     total cpu time spent up to now is     4121.9 secs

     total energy              =   -1236.04120854 Ry
     estimated scf accuracy    <       0.00164132 Ry

     total magnetization       =    -0.00 Bohr mag/cell
     absolute magnetization    =     0.00 Bohr mag/cell

     iteration # 80     ecut=    50.00 Ry     beta= 0.01
     Davidson diagonalization with overlap

---- Real-time Memory Report at c_bands before calling an iterative solver
          1675 MiB given to the printing process from OS
          1447 MiB allocation reported by mallinfo(arena+hblkhd)
        308274 MiB available memory on the node where the printing process lives
------------------
     ethr =  5.45E-07,  avg # of iterations =  5.0

     negative rho (up, down):  6.197E-02 6.197E-02

     total cpu time spent up to now is     4187.1 secs

     total energy              =   -1236.04090901 Ry
     estimated scf accuracy    <       0.00330020 Ry

     total magnetization       =     0.00 Bohr mag/cell
     absolute magnetization    =     0.00 Bohr mag/cell

     iteration # 81     ecut=    50.00 Ry     beta= 0.01
     Davidson diagonalization with overlap

---- Real-time Memory Report at c_bands before calling an iterative solver
          1675 MiB given to the printing process from OS
          1447 MiB allocation reported by mallinfo(arena+hblkhd)
        308173 MiB available memory on the node where the printing process lives
------------------
     ethr =  5.45E-07,  avg # of iterations =  5.0

     negative rho (up, down):  6.127E-02 6.127E-02

     total cpu time spent up to now is     4247.8 secs

     total energy              =   -1236.04138075 Ry
     estimated scf accuracy    <       0.00118649 Ry

     total magnetization       =     0.00 Bohr mag/cell
     absolute magnetization    =     0.00 Bohr mag/cell

     iteration # 82     ecut=    50.00 Ry     beta= 0.01
     Davidson diagonalization with overlap

---- Real-time Memory Report at c_bands before calling an iterative solver
          1675 MiB given to the printing process from OS
          1447 MiB allocation reported by mallinfo(arena+hblkhd)
        308299 MiB available memory on the node where the printing process lives
------------------
     ethr =  4.78E-07,  avg # of iterations =  2.8

     negative rho (up, down):  6.058E-02 6.058E-02

     total cpu time spent up to now is     4296.5 secs

     total energy              =   -1236.04134892 Ry
     estimated scf accuracy    <       0.00136430 Ry

     total magnetization       =    -0.00 Bohr mag/cell
     absolute magnetization    =     0.00 Bohr mag/cell

     iteration # 83     ecut=    50.00 Ry     beta= 0.01
     Davidson diagonalization with overlap

---- Real-time Memory Report at c_bands before calling an iterative solver
          1675 MiB given to the printing process from OS
          1447 MiB allocation reported by mallinfo(arena+hblkhd)
        308369 MiB available memory on the node where the printing process lives
------------------
     ethr =  4.78E-07,  avg # of iterations =  1.0

     negative rho (up, down):  6.075E-02 6.075E-02

     total cpu time spent up to now is     4340.0 secs

     total energy              =   -1236.04142778 Ry
     estimated scf accuracy    <       0.00111690 Ry

     total magnetization       =    -0.00 Bohr mag/cell
     absolute magnetization    =     0.00 Bohr mag/cell

     iteration # 84     ecut=    50.00 Ry     beta= 0.01
     Davidson diagonalization with overlap

---- Real-time Memory Report at c_bands before calling an iterative solver
          1675 MiB given to the printing process from OS
          1447 MiB allocation reported by mallinfo(arena+hblkhd)
        308145 MiB available memory on the node where the printing process lives
------------------
     ethr =  4.50E-07,  avg # of iterations =  2.0

     negative rho (up, down):  6.183E-02 6.183E-02

     total cpu time spent up to now is     4391.5 secs

     total energy              =   -1236.04104001 Ry
     estimated scf accuracy    <       0.00160220 Ry

     total magnetization       =     0.00 Bohr mag/cell
     absolute magnetization    =     0.00 Bohr mag/cell

     iteration # 85     ecut=    50.00 Ry     beta= 0.01
     Davidson diagonalization with overlap

---- Real-time Memory Report at c_bands before calling an iterative solver
          1675 MiB given to the printing process from OS
          1447 MiB allocation reported by mallinfo(arena+hblkhd)
        308328 MiB available memory on the node where the printing process lives
------------------
     ethr =  4.50E-07,  avg # of iterations =  3.0

     negative rho (up, down):  6.093E-02 6.093E-02

     total cpu time spent up to now is     4450.2 secs

     total energy              =   -1236.04163653 Ry
     estimated scf accuracy    <       0.00232938 Ry

     total magnetization       =    -0.00 Bohr mag/cell
     absolute magnetization    =     0.00 Bohr mag/cell

     iteration # 86     ecut=    50.00 Ry     beta= 0.01
     Davidson diagonalization with overlap

---- Real-time Memory Report at c_bands before calling an iterative solver
          1675 MiB given to the printing process from OS
          1447 MiB allocation reported by mallinfo(arena+hblkhd)
        308205 MiB available memory on the node where the printing process lives
------------------
     ethr =  4.50E-07,  avg # of iterations = 11.2

     negative rho (up, down):  6.418E-02 6.419E-02

     total cpu time spent up to now is     4505.9 secs

     total energy              =   -1236.04165964 Ry
     estimated scf accuracy    <       0.00217462 Ry

     total magnetization       =     0.00 Bohr mag/cell
     absolute magnetization    =     0.00 Bohr mag/cell

     iteration # 87     ecut=    50.00 Ry     beta= 0.01
     Davidson diagonalization with overlap

---- Real-time Memory Report at c_bands before calling an iterative solver
          1675 MiB given to the printing process from OS
          1447 MiB allocation reported by mallinfo(arena+hblkhd)
        308142 MiB available memory on the node where the printing process lives
------------------
     ethr =  4.50E-07,  avg # of iterations =  4.0

     negative rho (up, down):  6.565E-02 6.566E-02

     total cpu time spent up to now is     4555.4 secs

     total energy              =   -1236.04167568 Ry
     estimated scf accuracy    <       0.00166754 Ry

     total magnetization       =     0.00 Bohr mag/cell
     absolute magnetization    =     0.00 Bohr mag/cell

     iteration # 88     ecut=    50.00 Ry     beta= 0.01
     Davidson diagonalization with overlap

---- Real-time Memory Report at c_bands before calling an iterative solver
          1675 MiB given to the printing process from OS
          1447 MiB allocation reported by mallinfo(arena+hblkhd)
        308371 MiB available memory on the node where the printing process lives
------------------
     ethr =  4.50E-07,  avg # of iterations =  1.0

     negative rho (up, down):  6.535E-02 6.535E-02

     total cpu time spent up to now is     4599.1 secs

     total energy              =   -1236.04134032 Ry
     estimated scf accuracy    <       0.00151979 Ry

     total magnetization       =    -0.00 Bohr mag/cell
     absolute magnetization    =     0.00 Bohr mag/cell

     iteration # 89     ecut=    50.00 Ry     beta= 0.01
     Davidson diagonalization with overlap

---- Real-time Memory Report at c_bands before calling an iterative solver
          1675 MiB given to the printing process from OS
          1447 MiB allocation reported by mallinfo(arena+hblkhd)
        308129 MiB available memory on the node where the printing process lives
------------------
     ethr =  4.50E-07,  avg # of iterations =  2.0

     negative rho (up, down):  6.311E-02 6.311E-02

     total cpu time spent up to now is     4646.9 secs

     total energy              =   -1236.04134678 Ry
     estimated scf accuracy    <       0.00097456 Ry

     total magnetization       =     0.00 Bohr mag/cell
     absolute magnetization    =     0.00 Bohr mag/cell

     iteration # 90     ecut=    50.00 Ry     beta= 0.01
     Davidson diagonalization with overlap

---- Real-time Memory Report at c_bands before calling an iterative solver
          1675 MiB given to the printing process from OS
          1447 MiB allocation reported by mallinfo(arena+hblkhd)
        308241 MiB available memory on the node where the printing process lives
------------------
     ethr =  3.93E-07,  avg # of iterations =  1.8

     negative rho (up, down):  6.186E-02 6.186E-02

     total cpu time spent up to now is     4693.3 secs

     total energy              =   -1236.04141653 Ry
     estimated scf accuracy    <       0.00097454 Ry

     total magnetization       =     0.00 Bohr mag/cell
     absolute magnetization    =     0.00 Bohr mag/cell

     iteration # 91     ecut=    50.00 Ry     beta= 0.01
     Davidson diagonalization with overlap

---- Real-time Memory Report at c_bands before calling an iterative solver
          1675 MiB given to the printing process from OS
          1447 MiB allocation reported by mallinfo(arena+hblkhd)
        308235 MiB available memory on the node where the printing process lives
------------------
     ethr =  3.93E-07,  avg # of iterations =  4.2

     negative rho (up, down):  5.654E-02 5.654E-02

     total cpu time spent up to now is     4742.1 secs

     total energy              =   -1236.04175197 Ry
     estimated scf accuracy    <       0.00096581 Ry

     total magnetization       =    -0.00 Bohr mag/cell
     absolute magnetization    =     0.00 Bohr mag/cell

     iteration # 92     ecut=    50.00 Ry     beta= 0.01
     Davidson diagonalization with overlap

---- Real-time Memory Report at c_bands before calling an iterative solver
          1675 MiB given to the printing process from OS
          1447 MiB allocation reported by mallinfo(arena+hblkhd)
        308152 MiB available memory on the node where the printing process lives
------------------
     ethr =  3.89E-07,  avg # of iterations =  6.0

     negative rho (up, down):  5.417E-02 5.417E-02

     total cpu time spent up to now is     4804.9 secs

     total energy              =   -1236.04107997 Ry
     estimated scf accuracy    <       0.00408259 Ry

     total magnetization       =    -0.00 Bohr mag/cell
     absolute magnetization    =     0.00 Bohr mag/cell

     iteration # 93     ecut=    50.00 Ry     beta= 0.01
     Davidson diagonalization with overlap

---- Real-time Memory Report at c_bands before calling an iterative solver
          1675 MiB given to the printing process from OS
          1447 MiB allocation reported by mallinfo(arena+hblkhd)
        308243 MiB available memory on the node where the printing process lives
------------------
     ethr =  3.89E-07,  avg # of iterations =  8.8

     negative rho (up, down):  5.423E-02 5.422E-02

     total cpu time spent up to now is     4872.1 secs

     total energy              =   -1236.04138606 Ry
     estimated scf accuracy    <       0.00108018 Ry

     total magnetization       =    -0.00 Bohr mag/cell
     absolute magnetization    =     0.00 Bohr mag/cell

     iteration # 94     ecut=    50.00 Ry     beta= 0.01
     Davidson diagonalization with overlap

---- Real-time Memory Report at c_bands before calling an iterative solver
          1675 MiB given to the printing process from OS
          1447 MiB allocation reported by mallinfo(arena+hblkhd)
        308082 MiB available memory on the node where the printing process lives
------------------
     ethr =  3.89E-07,  avg # of iterations =  5.0

     negative rho (up, down):  5.493E-02 5.493E-02

     total cpu time spent up to now is     4927.0 secs

     total energy              =   -1236.04168889 Ry
     estimated scf accuracy    <       0.00092822 Ry

     total magnetization       =     0.00 Bohr mag/cell
     absolute magnetization    =     0.00 Bohr mag/cell

     iteration # 95     ecut=    50.00 Ry     beta= 0.01
     Davidson diagonalization with overlap

---- Real-time Memory Report at c_bands before calling an iterative solver
          1675 MiB given to the printing process from OS
          1447 MiB allocation reported by mallinfo(arena+hblkhd)
        307981 MiB available memory on the node where the printing process lives
------------------
     ethr =  3.74E-07,  avg # of iterations =  6.8

     negative rho (up, down):  5.282E-02 5.282E-02

     total cpu time spent up to now is     4980.9 secs

     total energy              =   -1236.04156669 Ry
     estimated scf accuracy    <       0.00133752 Ry

     total magnetization       =     0.00 Bohr mag/cell
     absolute magnetization    =     0.00 Bohr mag/cell

     iteration # 96     ecut=    50.00 Ry     beta= 0.01
     Davidson diagonalization with overlap

---- Real-time Memory Report at c_bands before calling an iterative solver
          1675 MiB given to the printing process from OS
          1447 MiB allocation reported by mallinfo(arena+hblkhd)
        308004 MiB available memory on the node where the printing process lives
------------------
     ethr =  3.74E-07,  avg # of iterations =  1.0

     negative rho (up, down):  5.337E-02 5.337E-02

     total cpu time spent up to now is     5024.7 secs

     total energy              =   -1236.04148315 Ry
     estimated scf accuracy    <       0.00104190 Ry

     total magnetization       =     0.00 Bohr mag/cell
     absolute magnetization    =     0.00 Bohr mag/cell

     iteration # 97     ecut=    50.00 Ry     beta= 0.01
     Davidson diagonalization with overlap

---- Real-time Memory Report at c_bands before calling an iterative solver
          1675 MiB given to the printing process from OS
          1447 MiB allocation reported by mallinfo(arena+hblkhd)
        308119 MiB available memory on the node where the printing process lives
------------------
     ethr =  3.74E-07,  avg # of iterations =  5.0

     negative rho (up, down):  5.503E-02 5.503E-02

     total cpu time spent up to now is     5085.8 secs

     total energy              =   -1236.04228259 Ry
     estimated scf accuracy    <       0.00234691 Ry

     total magnetization       =     0.00 Bohr mag/cell
     absolute magnetization    =     0.00 Bohr mag/cell

     iteration # 98     ecut=    50.00 Ry     beta= 0.01
     Davidson diagonalization with overlap

---- Real-time Memory Report at c_bands before calling an iterative solver
          1675 MiB given to the printing process from OS
          1447 MiB allocation reported by mallinfo(arena+hblkhd)
        307995 MiB available memory on the node where the printing process lives
------------------
     ethr =  3.74E-07,  avg # of iterations =  4.1

     negative rho (up, down):  5.473E-02 5.473E-02

     total cpu time spent up to now is     5134.6 secs

     total energy              =   -1236.04167796 Ry
     estimated scf accuracy    <       0.00285850 Ry

     total magnetization       =    -0.00 Bohr mag/cell
     absolute magnetization    =     0.00 Bohr mag/cell

     iteration # 99     ecut=    50.00 Ry     beta= 0.01
     Davidson diagonalization with overlap

---- Real-time Memory Report at c_bands before calling an iterative solver
          1675 MiB given to the printing process from OS
          1447 MiB allocation reported by mallinfo(arena+hblkhd)
        308107 MiB available memory on the node where the printing process lives
------------------
     ethr =  3.74E-07,  avg # of iterations =  4.8

     negative rho (up, down):  5.036E-02 5.036E-02

     total cpu time spent up to now is     5184.3 secs

     total energy              =   -1236.04113586 Ry
     estimated scf accuracy    <       0.00164809 Ry

     total magnetization       =    -0.00 Bohr mag/cell
     absolute magnetization    =     0.00 Bohr mag/cell

     iteration #100     ecut=    50.00 Ry     beta= 0.01
     Davidson diagonalization with overlap

---- Real-time Memory Report at c_bands before calling an iterative solver
          1675 MiB given to the printing process from OS
          1447 MiB allocation reported by mallinfo(arena+hblkhd)
        308032 MiB available memory on the node where the printing process lives
------------------
     ethr =  3.74E-07,  avg # of iterations =  2.0

     negative rho (up, down):  5.015E-02 5.015E-02

     total cpu time spent up to now is     5241.2 secs

     total energy              =   -1236.04133146 Ry
     estimated scf accuracy    <       0.00073501 Ry

     total magnetization       =     0.00 Bohr mag/cell
     absolute magnetization    =     0.00 Bohr mag/cell

     iteration #101     ecut=    50.00 Ry     beta= 0.01
     Davidson diagonalization with overlap

---- Real-time Memory Report at c_bands before calling an iterative solver
          1675 MiB given to the printing process from OS
          1447 MiB allocation reported by mallinfo(arena+hblkhd)
        307995 MiB available memory on the node where the printing process lives
------------------
     ethr =  2.96E-07,  avg # of iterations =  1.0

     negative rho (up, down):  4.993E-02 4.993E-02

     total cpu time spent up to now is     5284.9 secs

     total energy              =   -1236.04135507 Ry
     estimated scf accuracy    <       0.00074270 Ry

     total magnetization       =    -0.00 Bohr mag/cell
     absolute magnetization    =     0.00 Bohr mag/cell

     iteration #102     ecut=    50.00 Ry     beta= 0.01
     Davidson diagonalization with overlap

---- Real-time Memory Report at c_bands before calling an iterative solver
          1675 MiB given to the printing process from OS
          1447 MiB allocation reported by mallinfo(arena+hblkhd)
        307932 MiB available memory on the node where the printing process lives
------------------
     ethr =  2.96E-07,  avg # of iterations =  1.0

     negative rho (up, down):  4.502E-02 4.502E-02

     total cpu time spent up to now is     5328.6 secs

     total energy              =   -1236.04120570 Ry
     estimated scf accuracy    <       0.00074599 Ry

     total magnetization       =    -0.00 Bohr mag/cell
     absolute magnetization    =     0.00 Bohr mag/cell

     iteration #103     ecut=    50.00 Ry     beta= 0.01
     Davidson diagonalization with overlap

---- Real-time Memory Report at c_bands before calling an iterative solver
          1675 MiB given to the printing process from OS
          1447 MiB allocation reported by mallinfo(arena+hblkhd)
        308177 MiB available memory on the node where the printing process lives
------------------
     ethr =  2.96E-07,  avg # of iterations =  5.0

     negative rho (up, down):  4.518E-02 4.518E-02

     total cpu time spent up to now is     5378.6 secs

     total energy              =   -1236.04103638 Ry
     estimated scf accuracy    <       0.00109890 Ry

     total magnetization       =     0.00 Bohr mag/cell
     absolute magnetization    =     0.00 Bohr mag/cell

     iteration #104     ecut=    50.00 Ry     beta= 0.01
     Davidson diagonalization with overlap

---- Real-time Memory Report at c_bands before calling an iterative solver
          1675 MiB given to the printing process from OS
          1447 MiB allocation reported by mallinfo(arena+hblkhd)
        308130 MiB available memory on the node where the printing process lives
------------------
     ethr =  2.96E-07,  avg # of iterations =  5.0

     negative rho (up, down):  4.578E-02 4.578E-02

     total cpu time spent up to now is     5427.5 secs

     total energy              =   -1236.04092620 Ry
     estimated scf accuracy    <       0.00082282 Ry

     total magnetization       =     0.00 Bohr mag/cell
     absolute magnetization    =     0.00 Bohr mag/cell

     iteration #105     ecut=    50.00 Ry     beta= 0.01
     Davidson diagonalization with overlap

---- Real-time Memory Report at c_bands before calling an iterative solver
          1675 MiB given to the printing process from OS
          1447 MiB allocation reported by mallinfo(arena+hblkhd)
        308166 MiB available memory on the node where the printing process lives
------------------
     ethr =  2.96E-07,  avg # of iterations =  2.0

     negative rho (up, down):  4.620E-02 4.620E-02

     total cpu time spent up to now is     5484.4 secs

     total energy              =   -1236.04106401 Ry
     estimated scf accuracy    <       0.00119586 Ry

     total magnetization       =    -0.00 Bohr mag/cell
     absolute magnetization    =     0.00 Bohr mag/cell

     iteration #106     ecut=    50.00 Ry     beta= 0.01
     Davidson diagonalization with overlap

---- Real-time Memory Report at c_bands before calling an iterative solver
          1675 MiB given to the printing process from OS
          1447 MiB allocation reported by mallinfo(arena+hblkhd)
        308173 MiB available memory on the node where the printing process lives
------------------
     ethr =  2.96E-07,  avg # of iterations =  2.0

     negative rho (up, down):  4.874E-02 4.874E-02

     total cpu time spent up to now is     5530.7 secs

     total energy              =   -1236.04088481 Ry
     estimated scf accuracy    <       0.00092973 Ry

     total magnetization       =     0.00 Bohr mag/cell
     absolute magnetization    =     0.00 Bohr mag/cell

     iteration #107     ecut=    50.00 Ry     beta= 0.01
     Davidson diagonalization with overlap

---- Real-time Memory Report at c_bands before calling an iterative solver
          1675 MiB given to the printing process from OS
          1447 MiB allocation reported by mallinfo(arena+hblkhd)
        308069 MiB available memory on the node where the printing process lives
------------------
     ethr =  2.96E-07,  avg # of iterations =  5.0

     negative rho (up, down):  4.915E-02 4.915E-02

     total cpu time spent up to now is     5590.3 secs

     total energy              =   -1236.04117465 Ry
     estimated scf accuracy    <       0.00086069 Ry

     total magnetization       =     0.00 Bohr mag/cell
     absolute magnetization    =     0.00 Bohr mag/cell

     iteration #108     ecut=    50.00 Ry     beta= 0.01
     Davidson diagonalization with overlap

---- Real-time Memory Report at c_bands before calling an iterative solver
          1675 MiB given to the printing process from OS
          1447 MiB allocation reported by mallinfo(arena+hblkhd)
        308166 MiB available memory on the node where the printing process lives
------------------
     ethr =  2.96E-07,  avg # of iterations =  2.0

     negative rho (up, down):  5.045E-02 5.045E-02

     total cpu time spent up to now is     5637.1 secs

     total energy              =   -1236.04127963 Ry
     estimated scf accuracy    <       0.00090812 Ry

     total magnetization       =    -0.00 Bohr mag/cell
     absolute magnetization    =     0.00 Bohr mag/cell

     iteration #109     ecut=    50.00 Ry     beta= 0.01
     Davidson diagonalization with overlap

---- Real-time Memory Report at c_bands before calling an iterative solver
          1675 MiB given to the printing process from OS
          1447 MiB allocation reported by mallinfo(arena+hblkhd)
        307993 MiB available memory on the node where the printing process lives
------------------
     ethr =  2.96E-07,  avg # of iterations =  2.0

     negative rho (up, down):  4.903E-02 4.903E-02

     total cpu time spent up to now is     5683.4 secs

     total energy              =   -1236.04110570 Ry
     estimated scf accuracy    <       0.00108201 Ry

     total magnetization       =    -0.00 Bohr mag/cell
     absolute magnetization    =     0.00 Bohr mag/cell

     iteration #110     ecut=    50.00 Ry     beta= 0.01
     Davidson diagonalization with overlap

---- Real-time Memory Report at c_bands before calling an iterative solver
          1675 MiB given to the printing process from OS
          1447 MiB allocation reported by mallinfo(arena+hblkhd)
        308205 MiB available memory on the node where the printing process lives
------------------
     ethr =  2.96E-07,  avg # of iterations =  2.9

     negative rho (up, down):  4.364E-02 4.364E-02

     total cpu time spent up to now is     5731.9 secs

     total energy              =   -1236.04101355 Ry
     estimated scf accuracy    <       0.00071955 Ry

     total magnetization       =     0.00 Bohr mag/cell
     absolute magnetization    =     0.00 Bohr mag/cell

     iteration #111     ecut=    50.00 Ry     beta= 0.01
     Davidson diagonalization with overlap

---- Real-time Memory Report at c_bands before calling an iterative solver
          1675 MiB given to the printing process from OS
          1447 MiB allocation reported by mallinfo(arena+hblkhd)
        308147 MiB available memory on the node where the printing process lives
------------------
     ethr =  2.90E-07,  avg # of iterations = 10.0

     negative rho (up, down):  4.164E-02 4.164E-02

     total cpu time spent up to now is     5793.5 secs

     total energy              =   -1236.04114369 Ry
     estimated scf accuracy    <       0.00066925 Ry

     total magnetization       =     0.00 Bohr mag/cell
     absolute magnetization    =     0.00 Bohr mag/cell

     iteration #112     ecut=    50.00 Ry     beta= 0.01
     Davidson diagonalization with overlap

---- Real-time Memory Report at c_bands before calling an iterative solver
          1675 MiB given to the printing process from OS
          1447 MiB allocation reported by mallinfo(arena+hblkhd)
        308187 MiB available memory on the node where the printing process lives
------------------
     ethr =  2.70E-07,  avg # of iterations =  2.0

     negative rho (up, down):  4.123E-02 4.123E-02

     total cpu time spent up to now is     5840.3 secs

     total energy              =   -1236.04110279 Ry
     estimated scf accuracy    <       0.00090251 Ry

     total magnetization       =    -0.00 Bohr mag/cell
     absolute magnetization    =     0.00 Bohr mag/cell

     iteration #113     ecut=    50.00 Ry     beta= 0.01
     Davidson diagonalization with overlap

---- Real-time Memory Report at c_bands before calling an iterative solver
          1675 MiB given to the printing process from OS
          1447 MiB allocation reported by mallinfo(arena+hblkhd)
        308244 MiB available memory on the node where the printing process lives
------------------
     ethr =  2.70E-07,  avg # of iterations =  1.5

     negative rho (up, down):  4.064E-02 4.064E-02

     total cpu time spent up to now is     5886.6 secs

     total energy              =   -1236.04106055 Ry
     estimated scf accuracy    <       0.00067680 Ry

     total magnetization       =    -0.00 Bohr mag/cell
     absolute magnetization    =     0.00 Bohr mag/cell

     iteration #114     ecut=    50.00 Ry     beta= 0.01
     Davidson diagonalization with overlap

---- Real-time Memory Report at c_bands before calling an iterative solver
          1675 MiB given to the printing process from OS
          1447 MiB allocation reported by mallinfo(arena+hblkhd)
        308005 MiB available memory on the node where the printing process lives
------------------
     ethr =  2.70E-07,  avg # of iterations =  1.2

     negative rho (up, down):  4.059E-02 4.059E-02

     total cpu time spent up to now is     5931.3 secs

     total energy              =   -1236.04110250 Ry
     estimated scf accuracy    <       0.00056183 Ry

     total magnetization       =    -0.00 Bohr mag/cell
     absolute magnetization    =     0.00 Bohr mag/cell

     iteration #115     ecut=    50.00 Ry     beta= 0.01
     Davidson diagonalization with overlap

---- Real-time Memory Report at c_bands before calling an iterative solver
          1675 MiB given to the printing process from OS
          1447 MiB allocation reported by mallinfo(arena+hblkhd)
        308178 MiB available memory on the node where the printing process lives
------------------
     ethr =  2.27E-07,  avg # of iterations =  1.0

     negative rho (up, down):  4.061E-02 4.061E-02

     total cpu time spent up to now is     5974.8 secs

     total energy              =   -1236.04110378 Ry
     estimated scf accuracy    <       0.00055963 Ry

     total magnetization       =     0.00 Bohr mag/cell
     absolute magnetization    =     0.00 Bohr mag/cell

     iteration #116     ecut=    50.00 Ry     beta= 0.01
     Davidson diagonalization with overlap

---- Real-time Memory Report at c_bands before calling an iterative solver
          1675 MiB given to the printing process from OS
          1447 MiB allocation reported by mallinfo(arena+hblkhd)
        307945 MiB available memory on the node where the printing process lives
------------------
     ethr =  2.26E-07,  avg # of iterations =  1.0

     negative rho (up, down):  4.071E-02 4.071E-02

     total cpu time spent up to now is     6019.0 secs

     total energy              =   -1236.04108170 Ry
     estimated scf accuracy    <       0.00060869 Ry

     total magnetization       =    -0.00 Bohr mag/cell
     absolute magnetization    =     0.00 Bohr mag/cell

     iteration #117     ecut=    50.00 Ry     beta= 0.01
     Davidson diagonalization with overlap

---- Real-time Memory Report at c_bands before calling an iterative solver
          1675 MiB given to the printing process from OS
          1447 MiB allocation reported by mallinfo(arena+hblkhd)
        307838 MiB available memory on the node where the printing process lives
------------------
     ethr =  2.26E-07,  avg # of iterations =  1.0

     negative rho (up, down):  4.519E-02 4.519E-02

     total cpu time spent up to now is     6063.0 secs

     total energy              =   -1236.04128632 Ry
     estimated scf accuracy    <       0.00061267 Ry

     total magnetization       =    -0.00 Bohr mag/cell
     absolute magnetization    =     0.00 Bohr mag/cell

     iteration #118     ecut=    50.00 Ry     beta= 0.01
     Davidson diagonalization with overlap

---- Real-time Memory Report at c_bands before calling an iterative solver
          1675 MiB given to the printing process from OS
          1447 MiB allocation reported by mallinfo(arena+hblkhd)
        307929 MiB available memory on the node where the printing process lives
------------------
     ethr =  2.26E-07,  avg # of iterations =  4.0

     negative rho (up, down):  4.460E-02 4.460E-02

     total cpu time spent up to now is     6123.6 secs

     total energy              =   -1236.04101398 Ry
     estimated scf accuracy    <       0.00180240 Ry

     total magnetization       =     0.00 Bohr mag/cell
     absolute magnetization    =     0.00 Bohr mag/cell

     iteration #119     ecut=    50.00 Ry     beta= 0.01
     Davidson diagonalization with overlap

---- Real-time Memory Report at c_bands before calling an iterative solver
          1675 MiB given to the printing process from OS
          1447 MiB allocation reported by mallinfo(arena+hblkhd)
        308022 MiB available memory on the node where the printing process lives
------------------
     ethr =  2.26E-07,  avg # of iterations =  2.0

     negative rho (up, down):  4.549E-02 4.549E-02

     total cpu time spent up to now is     6170.8 secs

     total energy              =   -1236.04101367 Ry
     estimated scf accuracy    <       0.00083886 Ry

     total magnetization       =     0.00 Bohr mag/cell
     absolute magnetization    =     0.00 Bohr mag/cell

     iteration #120     ecut=    50.00 Ry     beta= 0.01
     Davidson diagonalization with overlap

---- Real-time Memory Report at c_bands before calling an iterative solver
          1675 MiB given to the printing process from OS
          1447 MiB allocation reported by mallinfo(arena+hblkhd)
        307950 MiB available memory on the node where the printing process lives
------------------
     ethr =  2.26E-07,  avg # of iterations =  1.0

     negative rho (up, down):  4.544E-02 4.544E-02

     total cpu time spent up to now is     6214.5 secs

     total energy              =   -1236.04100762 Ry
     estimated scf accuracy    <       0.00066057 Ry

     total magnetization       =    -0.00 Bohr mag/cell
     absolute magnetization    =     0.00 Bohr mag/cell

     iteration #121     ecut=    50.00 Ry     beta= 0.01
     Davidson diagonalization with overlap

---- Real-time Memory Report at c_bands before calling an iterative solver
          1675 MiB given to the printing process from OS
          1447 MiB allocation reported by mallinfo(arena+hblkhd)
        308014 MiB available memory on the node where the printing process lives
------------------
     ethr =  2.26E-07,  avg # of iterations =  1.0

     negative rho (up, down):  4.673E-02 4.673E-02

     total cpu time spent up to now is     6258.4 secs

     total energy              =   -1236.04104216 Ry
     estimated scf accuracy    <       0.00058047 Ry

     total magnetization       =     0.00 Bohr mag/cell
     absolute magnetization    =     0.00 Bohr mag/cell

     iteration #122     ecut=    50.00 Ry     beta= 0.01
     Davidson diagonalization with overlap

---- Real-time Memory Report at c_bands before calling an iterative solver
          1675 MiB given to the printing process from OS
          1447 MiB allocation reported by mallinfo(arena+hblkhd)
        308099 MiB available memory on the node where the printing process lives
------------------
     ethr =  2.26E-07,  avg # of iterations =  1.0

     negative rho (up, down):  4.731E-02 4.731E-02

     total cpu time spent up to now is     6302.0 secs

     total energy              =   -1236.04108354 Ry
     estimated scf accuracy    <       0.00052361 Ry

     total magnetization       =     0.00 Bohr mag/cell
     absolute magnetization    =     0.00 Bohr mag/cell

     iteration #123     ecut=    50.00 Ry     beta= 0.01
     Davidson diagonalization with overlap

---- Real-time Memory Report at c_bands before calling an iterative solver
          1677 MiB given to the printing process from OS
          1447 MiB allocation reported by mallinfo(arena+hblkhd)
        307843 MiB available memory on the node where the printing process lives
------------------
     ethr =  2.11E-07,  avg # of iterations =  1.0

     negative rho (up, down):  4.709E-02 4.709E-02

     total cpu time spent up to now is     6346.1 secs

     total energy              =   -1236.04107678 Ry
     estimated scf accuracy    <       0.00053143 Ry

     total magnetization       =     0.00 Bohr mag/cell
     absolute magnetization    =     0.00 Bohr mag/cell

     iteration #124     ecut=    50.00 Ry     beta= 0.01
     Davidson diagonalization with overlap

---- Real-time Memory Report at c_bands before calling an iterative solver
          1677 MiB given to the printing process from OS
          1447 MiB allocation reported by mallinfo(arena+hblkhd)
        307841 MiB available memory on the node where the printing process lives
------------------
     ethr =  2.11E-07,  avg # of iterations =  1.0

     negative rho (up, down):  4.686E-02 4.686E-02

     total cpu time spent up to now is     6389.9 secs

     total energy              =   -1236.04108417 Ry
     estimated scf accuracy    <       0.00051845 Ry

     total magnetization       =    -0.00 Bohr mag/cell
     absolute magnetization    =     0.00 Bohr mag/cell

     iteration #125     ecut=    50.00 Ry     beta= 0.01
     Davidson diagonalization with overlap

---- Real-time Memory Report at c_bands before calling an iterative solver
          1677 MiB given to the printing process from OS
          1447 MiB allocation reported by mallinfo(arena+hblkhd)
        307871 MiB available memory on the node where the printing process lives
------------------
     ethr =  2.09E-07,  avg # of iterations =  1.0

     negative rho (up, down):  4.636E-02 4.636E-02

     total cpu time spent up to now is     6433.6 secs

     total energy              =   -1236.04109146 Ry
     estimated scf accuracy    <       0.00051832 Ry

     total magnetization       =    -0.00 Bohr mag/cell
     absolute magnetization    =     0.00 Bohr mag/cell

     iteration #126     ecut=    50.00 Ry     beta= 0.01
     Davidson diagonalization with overlap

---- Real-time Memory Report at c_bands before calling an iterative solver
          1677 MiB given to the printing process from OS
          1447 MiB allocation reported by mallinfo(arena+hblkhd)
        307956 MiB available memory on the node where the printing process lives
------------------
     ethr =  2.09E-07,  avg # of iterations =  1.0

     negative rho (up, down):  4.619E-02 4.619E-02

     total cpu time spent up to now is     6477.4 secs

     total energy              =   -1236.04110590 Ry
     estimated scf accuracy    <       0.00051912 Ry

     total magnetization       =    -0.00 Bohr mag/cell
     absolute magnetization    =     0.00 Bohr mag/cell

     iteration #127     ecut=    50.00 Ry     beta= 0.01
     Davidson diagonalization with overlap

---- Real-time Memory Report at c_bands before calling an iterative solver
          1677 MiB given to the printing process from OS
          1447 MiB allocation reported by mallinfo(arena+hblkhd)
        308099 MiB available memory on the node where the printing process lives
------------------
     ethr =  2.09E-07,  avg # of iterations =  1.0

     negative rho (up, down):  4.891E-02 4.891E-02

     total cpu time spent up to now is     6521.5 secs

     total energy              =   -1236.04110824 Ry
     estimated scf accuracy    <       0.00053709 Ry

     total magnetization       =    -0.00 Bohr mag/cell
     absolute magnetization    =     0.00 Bohr mag/cell

     iteration #128     ecut=    50.00 Ry     beta= 0.01
     Davidson diagonalization with overlap

---- Real-time Memory Report at c_bands before calling an iterative solver
          1677 MiB given to the printing process from OS
          1447 MiB allocation reported by mallinfo(arena+hblkhd)
        308053 MiB available memory on the node where the printing process lives
------------------
     ethr =  2.09E-07,  avg # of iterations =  1.0

     negative rho (up, down):  4.655E-02 4.655E-02

     total cpu time spent up to now is     6565.2 secs

     total energy              =   -1236.04107300 Ry
     estimated scf accuracy    <       0.00060850 Ry

     total magnetization       =     0.00 Bohr mag/cell
     absolute magnetization    =     0.00 Bohr mag/cell

     iteration #129     ecut=    50.00 Ry     beta= 0.01
     Davidson diagonalization with overlap

---- Real-time Memory Report at c_bands before calling an iterative solver
          1677 MiB given to the printing process from OS
          1447 MiB allocation reported by mallinfo(arena+hblkhd)
        307793 MiB available memory on the node where the printing process lives
------------------
     ethr =  2.09E-07,  avg # of iterations =  1.0

     negative rho (up, down):  4.753E-02 4.753E-02

     total cpu time spent up to now is     6609.0 secs

     total energy              =   -1236.04111351 Ry
     estimated scf accuracy    <       0.00056227 Ry

     total magnetization       =    -0.00 Bohr mag/cell
     absolute magnetization    =     0.00 Bohr mag/cell

     iteration #130     ecut=    50.00 Ry     beta= 0.01
     Davidson diagonalization with overlap

---- Real-time Memory Report at c_bands before calling an iterative solver
          1677 MiB given to the printing process from OS
          1447 MiB allocation reported by mallinfo(arena+hblkhd)
        307823 MiB available memory on the node where the printing process lives
------------------
     ethr =  2.09E-07,  avg # of iterations =  1.0

     negative rho (up, down):  4.710E-02 4.710E-02

     total cpu time spent up to now is     6653.2 secs

     total energy              =   -1236.04111782 Ry
     estimated scf accuracy    <       0.00059523 Ry

     total magnetization       =     0.00 Bohr mag/cell
     absolute magnetization    =     0.00 Bohr mag/cell

     iteration #131     ecut=    50.00 Ry     beta= 0.01
     Davidson diagonalization with overlap

---- Real-time Memory Report at c_bands before calling an iterative solver
          1677 MiB given to the printing process from OS
          1447 MiB allocation reported by mallinfo(arena+hblkhd)
        307907 MiB available memory on the node where the printing process lives
------------------
     ethr =  2.09E-07,  avg # of iterations =  1.0

     negative rho (up, down):  4.715E-02 4.715E-02

     total cpu time spent up to now is     6696.8 secs

     total energy              =   -1236.04112470 Ry
     estimated scf accuracy    <       0.00060036 Ry

     total magnetization       =     0.00 Bohr mag/cell
     absolute magnetization    =     0.00 Bohr mag/cell

     iteration #132     ecut=    50.00 Ry     beta= 0.01
     Davidson diagonalization with overlap

---- Real-time Memory Report at c_bands before calling an iterative solver
          1677 MiB given to the printing process from OS
          1447 MiB allocation reported by mallinfo(arena+hblkhd)
        307967 MiB available memory on the node where the printing process lives
------------------
     ethr =  2.09E-07,  avg # of iterations =  1.0

     negative rho (up, down):  4.712E-02 4.712E-02

     total cpu time spent up to now is     6740.8 secs

     total energy              =   -1236.04111437 Ry
     estimated scf accuracy    <       0.00054760 Ry

     total magnetization       =    -0.00 Bohr mag/cell
     absolute magnetization    =     0.00 Bohr mag/cell

     iteration #133     ecut=    50.00 Ry     beta= 0.01
     Davidson diagonalization with overlap

---- Real-time Memory Report at c_bands before calling an iterative solver
          1677 MiB given to the printing process from OS
          1447 MiB allocation reported by mallinfo(arena+hblkhd)
        307879 MiB available memory on the node where the printing process lives
------------------
     ethr =  2.09E-07,  avg # of iterations =  1.0

     negative rho (up, down):  4.623E-02 4.623E-02

     total cpu time spent up to now is     6784.8 secs

     total energy              =   -1236.04113178 Ry
     estimated scf accuracy    <       0.00059086 Ry

     total magnetization       =    -0.00 Bohr mag/cell
     absolute magnetization    =     0.00 Bohr mag/cell

     iteration #134     ecut=    50.00 Ry     beta= 0.01
     Davidson diagonalization with overlap

---- Real-time Memory Report at c_bands before calling an iterative solver
          1677 MiB given to the printing process from OS
          1447 MiB allocation reported by mallinfo(arena+hblkhd)
        307772 MiB available memory on the node where the printing process lives
------------------
     ethr =  2.09E-07,  avg # of iterations =  1.0

     negative rho (up, down):  4.592E-02 4.592E-02

     total cpu time spent up to now is     6828.5 secs

     total energy              =   -1236.04114180 Ry
     estimated scf accuracy    <       0.00061073 Ry

     total magnetization       =     0.00 Bohr mag/cell
     absolute magnetization    =     0.00 Bohr mag/cell

     iteration #135     ecut=    50.00 Ry     beta= 0.01
     Davidson diagonalization with overlap

---- Real-time Memory Report at c_bands before calling an iterative solver
          1677 MiB given to the printing process from OS
          1447 MiB allocation reported by mallinfo(arena+hblkhd)
        308004 MiB available memory on the node where the printing process lives
------------------
     ethr =  2.09E-07,  avg # of iterations =  1.0

     negative rho (up, down):  4.608E-02 4.608E-02

     total cpu time spent up to now is     6872.5 secs

     total energy              =   -1236.04115001 Ry
     estimated scf accuracy    <       0.00061644 Ry

     total magnetization       =    -0.00 Bohr mag/cell
     absolute magnetization    =     0.00 Bohr mag/cell

     iteration #136     ecut=    50.00 Ry     beta= 0.01
     Davidson diagonalization with overlap

---- Real-time Memory Report at c_bands before calling an iterative solver
          1677 MiB given to the printing process from OS
          1447 MiB allocation reported by mallinfo(arena+hblkhd)
        308006 MiB available memory on the node where the printing process lives
------------------
     ethr =  2.09E-07,  avg # of iterations =  1.0

     negative rho (up, down):  4.625E-02 4.625E-02

     total cpu time spent up to now is     6916.4 secs

     total energy              =   -1236.04113900 Ry
     estimated scf accuracy    <       0.00063760 Ry

     total magnetization       =    -0.00 Bohr mag/cell
     absolute magnetization    =     0.00 Bohr mag/cell

     iteration #137     ecut=    50.00 Ry     beta= 0.01
     Davidson diagonalization with overlap

---- Real-time Memory Report at c_bands before calling an iterative solver
          1677 MiB given to the printing process from OS
          1447 MiB allocation reported by mallinfo(arena+hblkhd)
        308023 MiB available memory on the node where the printing process lives
------------------
     ethr =  2.09E-07,  avg # of iterations =  1.0

     negative rho (up, down):  4.686E-02 4.686E-02

     total cpu time spent up to now is     6960.5 secs

     total energy              =   -1236.04111549 Ry
     estimated scf accuracy    <       0.00060657 Ry

     total magnetization       =    -0.00 Bohr mag/cell
     absolute magnetization    =     0.00 Bohr mag/cell

     iteration #138     ecut=    50.00 Ry     beta= 0.01
     Davidson diagonalization with overlap

---- Real-time Memory Report at c_bands before calling an iterative solver
          1677 MiB given to the printing process from OS
          1447 MiB allocation reported by mallinfo(arena+hblkhd)
        307950 MiB available memory on the node where the printing process lives
------------------
     ethr =  2.09E-07,  avg # of iterations =  1.0

     negative rho (up, down):  4.689E-02 4.689E-02

     total cpu time spent up to now is     7004.5 secs

     total energy              =   -1236.04111790 Ry
     estimated scf accuracy    <       0.00055210 Ry

     total magnetization       =    -0.00 Bohr mag/cell
     absolute magnetization    =     0.00 Bohr mag/cell

     iteration #139     ecut=    50.00 Ry     beta= 0.01
     Davidson diagonalization with overlap

---- Real-time Memory Report at c_bands before calling an iterative solver
          1677 MiB given to the printing process from OS
          1447 MiB allocation reported by mallinfo(arena+hblkhd)
        307958 MiB available memory on the node where the printing process lives
------------------
     ethr =  2.09E-07,  avg # of iterations =  1.0

     negative rho (up, down):  4.585E-02 4.585E-02

     total cpu time spent up to now is     7048.5 secs

     total energy              =   -1236.04114131 Ry
     estimated scf accuracy    <       0.00055124 Ry

     total magnetization       =    -0.00 Bohr mag/cell
     absolute magnetization    =     0.00 Bohr mag/cell

     iteration #140     ecut=    50.00 Ry     beta= 0.01
     Davidson diagonalization with overlap

---- Real-time Memory Report at c_bands before calling an iterative solver
          1677 MiB given to the printing process from OS
          1447 MiB allocation reported by mallinfo(arena+hblkhd)
        308041 MiB available memory on the node where the printing process lives
------------------
     ethr =  2.09E-07,  avg # of iterations =  1.0

     negative rho (up, down):  4.426E-02 4.426E-02

     total cpu time spent up to now is     7092.1 secs

     total energy              =   -1236.04113526 Ry
     estimated scf accuracy    <       0.00055674 Ry

     total magnetization       =    -0.00 Bohr mag/cell
     absolute magnetization    =     0.00 Bohr mag/cell

     iteration #141     ecut=    50.00 Ry     beta= 0.01
     Davidson diagonalization with overlap

---- Real-time Memory Report at c_bands before calling an iterative solver
          1677 MiB given to the printing process from OS
          1447 MiB allocation reported by mallinfo(arena+hblkhd)
        307810 MiB available memory on the node where the printing process lives
------------------
     ethr =  2.09E-07,  avg # of iterations =  2.0

     negative rho (up, down):  4.418E-02 4.418E-02

     total cpu time spent up to now is     7138.9 secs

     total energy              =   -1236.04114294 Ry
     estimated scf accuracy    <       0.00053629 Ry

     total magnetization       =    -0.00 Bohr mag/cell
     absolute magnetization    =     0.00 Bohr mag/cell

     iteration #142     ecut=    50.00 Ry     beta= 0.01
     Davidson diagonalization with overlap

---- Real-time Memory Report at c_bands before calling an iterative solver
          1677 MiB given to the printing process from OS
          1447 MiB allocation reported by mallinfo(arena+hblkhd)
        307900 MiB available memory on the node where the printing process lives
------------------
     ethr =  2.09E-07,  avg # of iterations =  1.0

     negative rho (up, down):  4.356E-02 4.356E-02

     total cpu time spent up to now is     7182.6 secs

     total energy              =   -1236.04114585 Ry
     estimated scf accuracy    <       0.00052638 Ry

     total magnetization       =     0.00 Bohr mag/cell
     absolute magnetization    =     0.00 Bohr mag/cell

     iteration #143     ecut=    50.00 Ry     beta= 0.01
     Davidson diagonalization with overlap

---- Real-time Memory Report at c_bands before calling an iterative solver
          1677 MiB given to the printing process from OS
          1447 MiB allocation reported by mallinfo(arena+hblkhd)
        307971 MiB available memory on the node where the printing process lives
------------------
     ethr =  2.09E-07,  avg # of iterations =  1.0

     negative rho (up, down):  4.360E-02 4.360E-02

     total cpu time spent up to now is     7226.3 secs

     total energy              =   -1236.04115360 Ry
     estimated scf accuracy    <       0.00050224 Ry

     total magnetization       =    -0.00 Bohr mag/cell
     absolute magnetization    =     0.00 Bohr mag/cell

     iteration #144     ecut=    50.00 Ry     beta= 0.01
     Davidson diagonalization with overlap

---- Real-time Memory Report at c_bands before calling an iterative solver
          1677 MiB given to the printing process from OS
          1447 MiB allocation reported by mallinfo(arena+hblkhd)
        308068 MiB available memory on the node where the printing process lives
------------------
     ethr =  2.03E-07,  avg # of iterations =  1.0

     negative rho (up, down):  4.297E-02 4.297E-02

     total cpu time spent up to now is     7270.3 secs

     total energy              =   -1236.04118397 Ry
     estimated scf accuracy    <       0.00050296 Ry

     total magnetization       =    -0.00 Bohr mag/cell
     absolute magnetization    =     0.00 Bohr mag/cell

     iteration #145     ecut=    50.00 Ry     beta= 0.01
     Davidson diagonalization with overlap

---- Real-time Memory Report at c_bands before calling an iterative solver
          1677 MiB given to the printing process from OS
          1447 MiB allocation reported by mallinfo(arena+hblkhd)
        307982 MiB available memory on the node where the printing process lives
------------------
     ethr =  2.03E-07,  avg # of iterations =  1.0

     negative rho (up, down):  4.234E-02 4.234E-02

     total cpu time spent up to now is     7314.3 secs

     total energy              =   -1236.04121185 Ry
     estimated scf accuracy    <       0.00050131 Ry

     total magnetization       =    -0.00 Bohr mag/cell
     absolute magnetization    =     0.00 Bohr mag/cell

     iteration #146     ecut=    50.00 Ry     beta= 0.01
     Davidson diagonalization with overlap

---- Real-time Memory Report at c_bands before calling an iterative solver
          1677 MiB given to the printing process from OS
          1447 MiB allocation reported by mallinfo(arena+hblkhd)
        308005 MiB available memory on the node where the printing process lives
------------------
     ethr =  2.02E-07,  avg # of iterations =  1.0

     negative rho (up, down):  4.211E-02 4.211E-02

     total cpu time spent up to now is     7357.9 secs

     total energy              =   -1236.04121794 Ry
     estimated scf accuracy    <       0.00050652 Ry

     total magnetization       =     0.00 Bohr mag/cell
     absolute magnetization    =     0.00 Bohr mag/cell

     iteration #147     ecut=    50.00 Ry     beta= 0.01
     Davidson diagonalization with overlap

---- Real-time Memory Report at c_bands before calling an iterative solver
          1677 MiB given to the printing process from OS
          1447 MiB allocation reported by mallinfo(arena+hblkhd)
        307817 MiB available memory on the node where the printing process lives
------------------
     ethr =  2.02E-07,  avg # of iterations =  1.0

     negative rho (up, down):  4.237E-02 4.237E-02

     total cpu time spent up to now is     7401.8 secs

     total energy              =   -1236.04122605 Ry
     estimated scf accuracy    <       0.00049905 Ry

     total magnetization       =    -0.00 Bohr mag/cell
     absolute magnetization    =     0.00 Bohr mag/cell

     iteration #148     ecut=    50.00 Ry     beta= 0.01
     Davidson diagonalization with overlap

---- Real-time Memory Report at c_bands before calling an iterative solver
          1677 MiB given to the printing process from OS
          1447 MiB allocation reported by mallinfo(arena+hblkhd)
        307925 MiB available memory on the node where the printing process lives
------------------
     ethr =  2.01E-07,  avg # of iterations =  1.0

     negative rho (up, down):  4.369E-02 4.369E-02

     total cpu time spent up to now is     7445.6 secs

     total energy              =   -1236.04123527 Ry
     estimated scf accuracy    <       0.00049680 Ry

     total magnetization       =     0.00 Bohr mag/cell
     absolute magnetization    =     0.00 Bohr mag/cell

     iteration #149     ecut=    50.00 Ry     beta= 0.01
     Davidson diagonalization with overlap

---- Real-time Memory Report at c_bands before calling an iterative solver
          1677 MiB given to the printing process from OS
          1447 MiB allocation reported by mallinfo(arena+hblkhd)
        307971 MiB available memory on the node where the printing process lives
------------------
     ethr =  2.00E-07,  avg # of iterations =  1.0

     negative rho (up, down):  4.565E-02 4.565E-02

     total cpu time spent up to now is     7489.3 secs

     total energy              =   -1236.04121822 Ry
     estimated scf accuracy    <       0.00061432 Ry

     total magnetization       =     0.00 Bohr mag/cell
     absolute magnetization    =     0.00 Bohr mag/cell

     iteration #150     ecut=    50.00 Ry     beta= 0.01
     Davidson diagonalization with overlap

---- Real-time Memory Report at c_bands before calling an iterative solver
          1677 MiB given to the printing process from OS
          1447 MiB allocation reported by mallinfo(arena+hblkhd)
        308082 MiB available memory on the node where the printing process lives
------------------
     ethr =  2.00E-07,  avg # of iterations =  5.1

     negative rho (up, down):  4.426E-02 4.426E-02

     total cpu time spent up to now is     7539.4 secs

     total energy              =   -1236.04118650 Ry
     estimated scf accuracy    <       0.00052496 Ry

     total magnetization       =    -0.00 Bohr mag/cell
     absolute magnetization    =     0.00 Bohr mag/cell

     iteration #151     ecut=    50.00 Ry     beta= 0.01
     Davidson diagonalization with overlap

---- Real-time Memory Report at c_bands before calling an iterative solver
          1677 MiB given to the printing process from OS
          1447 MiB allocation reported by mallinfo(arena+hblkhd)
        308494 MiB available memory on the node where the printing process lives
------------------
     ethr =  2.00E-07,  avg # of iterations =  1.0

     negative rho (up, down):  4.539E-02 4.539E-02

     total cpu time spent up to now is     7583.0 secs

     total energy              =   -1236.04120209 Ry
     estimated scf accuracy    <       0.00047472 Ry

     total magnetization       =    -0.00 Bohr mag/cell
     absolute magnetization    =     0.00 Bohr mag/cell

     iteration #152     ecut=    50.00 Ry     beta= 0.01
     Davidson diagonalization with overlap

---- Real-time Memory Report at c_bands before calling an iterative solver
          1677 MiB given to the printing process from OS
          1447 MiB allocation reported by mallinfo(arena+hblkhd)
        316738 MiB available memory on the node where the printing process lives
------------------
     ethr =  1.91E-07,  avg # of iterations =  1.0

     negative rho (up, down):  4.444E-02 4.444E-02

     total cpu time spent up to now is     7626.6 secs

     total energy              =   -1236.04121825 Ry
     estimated scf accuracy    <       0.00047723 Ry

     total magnetization       =     0.00 Bohr mag/cell
     absolute magnetization    =     0.00 Bohr mag/cell

     iteration #153     ecut=    50.00 Ry     beta= 0.01
     Davidson diagonalization with overlap

---- Real-time Memory Report at c_bands before calling an iterative solver
          1677 MiB given to the printing process from OS
          1447 MiB allocation reported by mallinfo(arena+hblkhd)
        317161 MiB available memory on the node where the printing process lives
------------------
     ethr =  1.91E-07,  avg # of iterations =  1.0

     negative rho (up, down):  4.424E-02 4.424E-02

     total cpu time spent up to now is     7670.7 secs

     total energy              =   -1236.04122880 Ry
     estimated scf accuracy    <       0.00048567 Ry

     total magnetization       =    -0.00 Bohr mag/cell
     absolute magnetization    =     0.00 Bohr mag/cell

     iteration #154     ecut=    50.00 Ry     beta= 0.01
     Davidson diagonalization with overlap

---- Real-time Memory Report at c_bands before calling an iterative solver
          1677 MiB given to the printing process from OS
          1447 MiB allocation reported by mallinfo(arena+hblkhd)
        317121 MiB available memory on the node where the printing process lives
------------------
     ethr =  1.91E-07,  avg # of iterations =  1.0

     negative rho (up, down):  4.462E-02 4.463E-02

     total cpu time spent up to now is     7714.9 secs

     total energy              =   -1236.04114879 Ry
     estimated scf accuracy    <       0.00047965 Ry

     total magnetization       =    -0.00 Bohr mag/cell
     absolute magnetization    =     0.00 Bohr mag/cell

     iteration #155     ecut=    50.00 Ry     beta= 0.01
     Davidson diagonalization with overlap

---- Real-time Memory Report at c_bands before calling an iterative solver
          1677 MiB given to the printing process from OS
          1447 MiB allocation reported by mallinfo(arena+hblkhd)
        316838 MiB available memory on the node where the printing process lives
------------------
     ethr =  1.91E-07,  avg # of iterations =  1.0

     negative rho (up, down):  4.360E-02 4.360E-02

     total cpu time spent up to now is     7758.9 secs

     total energy              =   -1236.04104004 Ry
     estimated scf accuracy    <       0.00052433 Ry

     total magnetization       =     0.00 Bohr mag/cell
     absolute magnetization    =     0.00 Bohr mag/cell

     iteration #156     ecut=    50.00 Ry     beta= 0.01
     Davidson diagonalization with overlap

---- Real-time Memory Report at c_bands before calling an iterative solver
          1677 MiB given to the printing process from OS
          1447 MiB allocation reported by mallinfo(arena+hblkhd)
        316935 MiB available memory on the node where the printing process lives
------------------
     ethr =  1.91E-07,  avg # of iterations =  2.0

     negative rho (up, down):  4.196E-02 4.196E-02

     total cpu time spent up to now is     7807.0 secs

     total energy              =   -1236.04107609 Ry
     estimated scf accuracy    <       0.00053132 Ry

     total magnetization       =     0.00 Bohr mag/cell
     absolute magnetization    =     0.00 Bohr mag/cell

     iteration #157     ecut=    50.00 Ry     beta= 0.01
     Davidson diagonalization with overlap

---- Real-time Memory Report at c_bands before calling an iterative solver
          1677 MiB given to the printing process from OS
          1447 MiB allocation reported by mallinfo(arena+hblkhd)
        316885 MiB available memory on the node where the printing process lives
------------------
     ethr =  1.91E-07,  avg # of iterations =  5.0

     negative rho (up, down):  3.950E-02 3.950E-02

     total cpu time spent up to now is     7856.6 secs

     total energy              =   -1236.04120441 Ry
     estimated scf accuracy    <       0.00046338 Ry

     total magnetization       =    -0.00 Bohr mag/cell
     absolute magnetization    =     0.00 Bohr mag/cell

     iteration #158     ecut=    50.00 Ry     beta= 0.01
     Davidson diagonalization with overlap

---- Real-time Memory Report at c_bands before calling an iterative solver
          1677 MiB given to the printing process from OS
          1447 MiB allocation reported by mallinfo(arena+hblkhd)
        317101 MiB available memory on the node where the printing process lives
------------------
     ethr =  1.87E-07,  avg # of iterations =  6.0

     negative rho (up, down):  4.229E-02 4.229E-02

     total cpu time spent up to now is     7922.1 secs

     total energy              =   -1236.04103161 Ry
     estimated scf accuracy    <       0.00086853 Ry

     total magnetization       =     0.00 Bohr mag/cell
     absolute magnetization    =     0.00 Bohr mag/cell

     iteration #159     ecut=    50.00 Ry     beta= 0.01
     Davidson diagonalization with overlap

---- Real-time Memory Report at c_bands before calling an iterative solver
          1677 MiB given to the printing process from OS
          1447 MiB allocation reported by mallinfo(arena+hblkhd)
        316954 MiB available memory on the node where the printing process lives
------------------
     ethr =  1.87E-07,  avg # of iterations =  7.0

     negative rho (up, down):  4.285E-02 4.285E-02

     total cpu time spent up to now is     7982.6 secs

     total energy              =   -1236.04112414 Ry
     estimated scf accuracy    <       0.00042322 Ry

     total magnetization       =    -0.00 Bohr mag/cell
     absolute magnetization    =     0.00 Bohr mag/cell

     iteration #160     ecut=    50.00 Ry     beta= 0.01
     Davidson diagonalization with overlap

---- Real-time Memory Report at c_bands before calling an iterative solver
          1677 MiB given to the printing process from OS
          1447 MiB allocation reported by mallinfo(arena+hblkhd)
        317009 MiB available memory on the node where the printing process lives
------------------
     ethr =  1.71E-07,  avg # of iterations =  1.0

     negative rho (up, down):  4.564E-02 4.564E-02

     total cpu time spent up to now is     8026.2 secs

     total energy              =   -1236.04118061 Ry
     estimated scf accuracy    <       0.00042917 Ry

     total magnetization       =    -0.00 Bohr mag/cell
     absolute magnetization    =     0.00 Bohr mag/cell

     iteration #161     ecut=    50.00 Ry     beta= 0.01
     Davidson diagonalization with overlap

---- Real-time Memory Report at c_bands before calling an iterative solver
          1677 MiB given to the printing process from OS
          1447 MiB allocation reported by mallinfo(arena+hblkhd)
        316980 MiB available memory on the node where the printing process lives
------------------
     ethr =  1.71E-07,  avg # of iterations =  1.0

     negative rho (up, down):  4.571E-02 4.571E-02

     total cpu time spent up to now is     8070.4 secs

     total energy              =   -1236.04117947 Ry
     estimated scf accuracy    <       0.00040656 Ry

     total magnetization       =    -0.00 Bohr mag/cell
     absolute magnetization    =     0.00 Bohr mag/cell

     iteration #162     ecut=    50.00 Ry     beta= 0.01
     Davidson diagonalization with overlap

---- Real-time Memory Report at c_bands before calling an iterative solver
          1677 MiB given to the printing process from OS
          1447 MiB allocation reported by mallinfo(arena+hblkhd)
        317192 MiB available memory on the node where the printing process lives
------------------
     ethr =  1.64E-07,  avg # of iterations =  1.0

     negative rho (up, down):  4.530E-02 4.530E-02

     total cpu time spent up to now is     8114.6 secs

     total energy              =   -1236.04116740 Ry
     estimated scf accuracy    <       0.00039637 Ry

     total magnetization       =     0.00 Bohr mag/cell
     absolute magnetization    =     0.00 Bohr mag/cell

     iteration #163     ecut=    50.00 Ry     beta= 0.01
     Davidson diagonalization with overlap

---- Real-time Memory Report at c_bands before calling an iterative solver
          1677 MiB given to the printing process from OS
          1447 MiB allocation reported by mallinfo(arena+hblkhd)
        317047 MiB available memory on the node where the printing process lives
------------------
     ethr =  1.60E-07,  avg # of iterations =  1.0

     negative rho (up, down):  3.997E-02 3.997E-02

     total cpu time spent up to now is     8158.4 secs

     total energy              =   -1236.04108114 Ry
     estimated scf accuracy    <       0.00040400 Ry

     total magnetization       =     0.00 Bohr mag/cell
     absolute magnetization    =     0.00 Bohr mag/cell

     iteration #164     ecut=    50.00 Ry     beta= 0.01
     Davidson diagonalization with overlap

---- Real-time Memory Report at c_bands before calling an iterative solver
          1677 MiB given to the printing process from OS
          1447 MiB allocation reported by mallinfo(arena+hblkhd)
        317155 MiB available memory on the node where the printing process lives
------------------
     ethr =  1.60E-07,  avg # of iterations =  2.0

     negative rho (up, down):  4.036E-02 4.036E-02

     total cpu time spent up to now is     8205.7 secs

     total energy              =   -1236.04103397 Ry
     estimated scf accuracy    <       0.00047677 Ry

     total magnetization       =     0.00 Bohr mag/cell
     absolute magnetization    =     0.00 Bohr mag/cell

     iteration #165     ecut=    50.00 Ry     beta= 0.01
     Davidson diagonalization with overlap

---- Real-time Memory Report at c_bands before calling an iterative solver
          1677 MiB given to the printing process from OS
          1447 MiB allocation reported by mallinfo(arena+hblkhd)
        317032 MiB available memory on the node where the printing process lives
------------------
     ethr =  1.60E-07,  avg # of iterations =  2.0

     negative rho (up, down):  4.602E-02 4.601E-02

     total cpu time spent up to now is     8252.7 secs

     total energy              =   -1236.04099459 Ry
     estimated scf accuracy    <       0.00042629 Ry

     total magnetization       =     0.00 Bohr mag/cell
     absolute magnetization    =     0.00 Bohr mag/cell

     iteration #166     ecut=    50.00 Ry     beta= 0.01
     Davidson diagonalization with overlap

---- Real-time Memory Report at c_bands before calling an iterative solver
          1677 MiB given to the printing process from OS
          1447 MiB allocation reported by mallinfo(arena+hblkhd)
        318593 MiB available memory on the node where the printing process lives
------------------
     ethr =  1.60E-07,  avg # of iterations =  2.0

     negative rho (up, down):  4.217E-02 4.217E-02

     total cpu time spent up to now is     8299.9 secs

     total energy              =   -1236.04104075 Ry
     estimated scf accuracy    <       0.00037922 Ry

     total magnetization       =     0.00 Bohr mag/cell
     absolute magnetization    =     0.00 Bohr mag/cell

     iteration #167     ecut=    50.00 Ry     beta= 0.01
     Davidson diagonalization with overlap

---- Real-time Memory Report at c_bands before calling an iterative solver
          1677 MiB given to the printing process from OS
          1447 MiB allocation reported by mallinfo(arena+hblkhd)
        318481 MiB available memory on the node where the printing process lives
------------------
     ethr =  1.53E-07,  avg # of iterations =  1.0

     negative rho (up, down):  4.382E-02 4.382E-02

     total cpu time spent up to now is     8343.9 secs

     total energy              =   -1236.04104154 Ry
     estimated scf accuracy    <       0.00039278 Ry

     total magnetization       =     0.00 Bohr mag/cell
     absolute magnetization    =     0.00 Bohr mag/cell

     iteration #168     ecut=    50.00 Ry     beta= 0.01
     Davidson diagonalization with overlap

---- Real-time Memory Report at c_bands before calling an iterative solver
          1677 MiB given to the printing process from OS
          1447 MiB allocation reported by mallinfo(arena+hblkhd)
        318457 MiB available memory on the node where the printing process lives
------------------
     ethr =  1.53E-07,  avg # of iterations =  1.8

     negative rho (up, down):  4.270E-02 4.270E-02

     total cpu time spent up to now is     8390.1 secs

     total energy              =   -1236.04101121 Ry
     estimated scf accuracy    <       0.00041139 Ry

     total magnetization       =     0.00 Bohr mag/cell
     absolute magnetization    =     0.00 Bohr mag/cell

     iteration #169     ecut=    50.00 Ry     beta= 0.01
     Davidson diagonalization with overlap

---- Real-time Memory Report at c_bands before calling an iterative solver
          1677 MiB given to the printing process from OS
          1447 MiB allocation reported by mallinfo(arena+hblkhd)
        318480 MiB available memory on the node where the printing process lives
------------------
     ethr =  1.53E-07,  avg # of iterations =  1.0

     negative rho (up, down):  3.982E-02 3.982E-02

     total cpu time spent up to now is     8434.0 secs

     total energy              =   -1236.04098067 Ry
     estimated scf accuracy    <       0.00048253 Ry

     total magnetization       =    -0.00 Bohr mag/cell
     absolute magnetization    =     0.00 Bohr mag/cell

     iteration #170     ecut=    50.00 Ry     beta= 0.01
     Davidson diagonalization with overlap

---- Real-time Memory Report at c_bands before calling an iterative solver
          1677 MiB given to the printing process from OS
          1447 MiB allocation reported by mallinfo(arena+hblkhd)
        318528 MiB available memory on the node where the printing process lives
------------------
     ethr =  1.53E-07,  avg # of iterations =  1.0

     negative rho (up, down):  3.840E-02 3.840E-02

     total cpu time spent up to now is     8477.9 secs

     total energy              =   -1236.04095684 Ry
     estimated scf accuracy    <       0.00051361 Ry

     total magnetization       =     0.00 Bohr mag/cell
     absolute magnetization    =     0.00 Bohr mag/cell

     iteration #171     ecut=    50.00 Ry     beta= 0.01
     Davidson diagonalization with overlap

---- Real-time Memory Report at c_bands before calling an iterative solver
          1677 MiB given to the printing process from OS
          1447 MiB allocation reported by mallinfo(arena+hblkhd)
        318536 MiB available memory on the node where the printing process lives
------------------
     ethr =  1.53E-07,  avg # of iterations =  2.0

     negative rho (up, down):  4.039E-02 4.039E-02

     total cpu time spent up to now is     8524.7 secs

     total energy              =   -1236.04101061 Ry
     estimated scf accuracy    <       0.00039866 Ry

     total magnetization       =     0.00 Bohr mag/cell
     absolute magnetization    =     0.00 Bohr mag/cell

     iteration #172     ecut=    50.00 Ry     beta= 0.01
     Davidson diagonalization with overlap

---- Real-time Memory Report at c_bands before calling an iterative solver
          1677 MiB given to the printing process from OS
          1447 MiB allocation reported by mallinfo(arena+hblkhd)
        318660 MiB available memory on the node where the printing process lives
------------------
     ethr =  1.53E-07,  avg # of iterations =  2.0

     negative rho (up, down):  4.014E-02 4.014E-02

     total cpu time spent up to now is     8574.1 secs

     total energy              =   -1236.04109291 Ry
     estimated scf accuracy    <       0.00075120 Ry

     total magnetization       =    -0.00 Bohr mag/cell
     absolute magnetization    =     0.00 Bohr mag/cell

     iteration #173     ecut=    50.00 Ry     beta= 0.01
     Davidson diagonalization with overlap

---- Real-time Memory Report at c_bands before calling an iterative solver
          1677 MiB given to the printing process from OS
          1447 MiB allocation reported by mallinfo(arena+hblkhd)
        318532 MiB available memory on the node where the printing process lives
------------------
     ethr =  1.53E-07,  avg # of iterations =  1.0

     negative rho (up, down):  4.185E-02 4.185E-02

     total cpu time spent up to now is     8617.7 secs

     total energy              =   -1236.04113023 Ry
     estimated scf accuracy    <       0.00097316 Ry

     total magnetization       =    -0.00 Bohr mag/cell
     absolute magnetization    =     0.00 Bohr mag/cell

     iteration #174     ecut=    50.00 Ry     beta= 0.01
     Davidson diagonalization with overlap

---- Real-time Memory Report at c_bands before calling an iterative solver
          1677 MiB given to the printing process from OS
          1447 MiB allocation reported by mallinfo(arena+hblkhd)
        318573 MiB available memory on the node where the printing process lives
------------------
     ethr =  1.53E-07,  avg # of iterations =  1.8

     negative rho (up, down):  4.157E-02 4.157E-02

     total cpu time spent up to now is     8664.0 secs

     total energy              =   -1236.04109113 Ry
     estimated scf accuracy    <       0.00102859 Ry

     total magnetization       =    -0.00 Bohr mag/cell
     absolute magnetization    =     0.00 Bohr mag/cell

     iteration #175     ecut=    50.00 Ry     beta= 0.01
     Davidson diagonalization with overlap

---- Real-time Memory Report at c_bands before calling an iterative solver
          1677 MiB given to the printing process from OS
          1447 MiB allocation reported by mallinfo(arena+hblkhd)
        318011 MiB available memory on the node where the printing process lives
------------------
     ethr =  1.53E-07,  avg # of iterations =  1.0

     negative rho (up, down):  4.038E-02 4.038E-02

     total cpu time spent up to now is     8708.0 secs

     total energy              =   -1236.04109302 Ry
     estimated scf accuracy    <       0.00092475 Ry

     total magnetization       =     0.00 Bohr mag/cell
     absolute magnetization    =     0.00 Bohr mag/cell

     iteration #176     ecut=    50.00 Ry     beta= 0.01
     Davidson diagonalization with overlap

---- Real-time Memory Report at c_bands before calling an iterative solver
          1677 MiB given to the printing process from OS
          1447 MiB allocation reported by mallinfo(arena+hblkhd)
        318032 MiB available memory on the node where the printing process lives
------------------
     ethr =  1.53E-07,  avg # of iterations =  1.0

     negative rho (up, down):  4.061E-02 4.061E-02

     total cpu time spent up to now is     8752.1 secs

     total energy              =   -1236.04111757 Ry
     estimated scf accuracy    <       0.00108863 Ry

     total magnetization       =     0.00 Bohr mag/cell
     absolute magnetization    =     0.00 Bohr mag/cell

     iteration #177     ecut=    50.00 Ry     beta= 0.01
     Davidson diagonalization with overlap

---- Real-time Memory Report at c_bands before calling an iterative solver
          1677 MiB given to the printing process from OS
          1447 MiB allocation reported by mallinfo(arena+hblkhd)
        318034 MiB available memory on the node where the printing process lives
------------------
     ethr =  1.53E-07,  avg # of iterations =  1.0

     negative rho (up, down):  4.141E-02 4.141E-02

     total cpu time spent up to now is     8796.3 secs

     total energy              =   -1236.04107576 Ry
     estimated scf accuracy    <       0.00112218 Ry

     total magnetization       =    -0.00 Bohr mag/cell
     absolute magnetization    =     0.00 Bohr mag/cell

     iteration #178     ecut=    50.00 Ry     beta= 0.01
     Davidson diagonalization with overlap

---- Real-time Memory Report at c_bands before calling an iterative solver
          1677 MiB given to the printing process from OS
          1447 MiB allocation reported by mallinfo(arena+hblkhd)
        318235 MiB available memory on the node where the printing process lives
------------------
     ethr =  1.53E-07,  avg # of iterations =  1.0

     negative rho (up, down):  3.521E-02 3.521E-02

     total cpu time spent up to now is     8840.3 secs

     total energy              =   -1236.04100534 Ry
     estimated scf accuracy    <       0.00101654 Ry

     total magnetization       =     0.00 Bohr mag/cell
     absolute magnetization    =     0.00 Bohr mag/cell

     iteration #179     ecut=    50.00 Ry     beta= 0.01
     Davidson diagonalization with overlap

---- Real-time Memory Report at c_bands before calling an iterative solver
          1677 MiB given to the printing process from OS
          1447 MiB allocation reported by mallinfo(arena+hblkhd)
        318744 MiB available memory on the node where the printing process lives
------------------
     ethr =  1.53E-07,  avg # of iterations =  3.5

     negative rho (up, down):  4.285E-02 4.285E-02

     total cpu time spent up to now is     8888.8 secs

     total energy              =   -1236.04120523 Ry
     estimated scf accuracy    <       0.00087761 Ry

     total magnetization       =     0.00 Bohr mag/cell
     absolute magnetization    =     0.00 Bohr mag/cell

     iteration #180     ecut=    50.00 Ry     beta= 0.01
     Davidson diagonalization with overlap

---- Real-time Memory Report at c_bands before calling an iterative solver
          1677 MiB given to the printing process from OS
          1447 MiB allocation reported by mallinfo(arena+hblkhd)
        318475 MiB available memory on the node where the printing process lives
------------------
     ethr =  1.53E-07,  avg # of iterations =  3.5

     negative rho (up, down):  4.151E-02 4.151E-02

     total cpu time spent up to now is     8937.2 secs

     total energy              =   -1236.04099731 Ry
     estimated scf accuracy    <       0.00147488 Ry

     total magnetization       =    -0.00 Bohr mag/cell
     absolute magnetization    =     0.00 Bohr mag/cell

     iteration #181     ecut=    50.00 Ry     beta= 0.01
     Davidson diagonalization with overlap

---- Real-time Memory Report at c_bands before calling an iterative solver
          1677 MiB given to the printing process from OS
          1447 MiB allocation reported by mallinfo(arena+hblkhd)
        318353 MiB available memory on the node where the printing process lives
------------------
     ethr =  1.53E-07,  avg # of iterations =  2.0

     negative rho (up, down):  4.035E-02 4.035E-02

     total cpu time spent up to now is     8984.7 secs

     total energy              =   -1236.04112742 Ry
     estimated scf accuracy    <       0.00080289 Ry

     total magnetization       =    -0.00 Bohr mag/cell
     absolute magnetization    =     0.00 Bohr mag/cell

     iteration #182     ecut=    50.00 Ry     beta= 0.01
     Davidson diagonalization with overlap

---- Real-time Memory Report at c_bands before calling an iterative solver
          1677 MiB given to the printing process from OS
          1447 MiB allocation reported by mallinfo(arena+hblkhd)
        318378 MiB available memory on the node where the printing process lives
------------------
     ethr =  1.53E-07,  avg # of iterations =  2.0

     negative rho (up, down):  3.695E-02 3.695E-02

     total cpu time spent up to now is     9031.6 secs

     total energy              =   -1236.04105086 Ry
     estimated scf accuracy    <       0.00132863 Ry

     total magnetization       =     0.00 Bohr mag/cell
     absolute magnetization    =     0.00 Bohr mag/cell

     iteration #183     ecut=    50.00 Ry     beta= 0.01
     Davidson diagonalization with overlap

---- Real-time Memory Report at c_bands before calling an iterative solver
          1677 MiB given to the printing process from OS
          1447 MiB allocation reported by mallinfo(arena+hblkhd)
        318428 MiB available memory on the node where the printing process lives
------------------
     ethr =  1.53E-07,  avg # of iterations =  2.0

     negative rho (up, down):  3.534E-02 3.534E-02

     total cpu time spent up to now is     9078.3 secs

     total energy              =   -1236.04063141 Ry
     estimated scf accuracy    <       0.00108737 Ry

     total magnetization       =    -0.00 Bohr mag/cell
     absolute magnetization    =     0.00 Bohr mag/cell

     iteration #184     ecut=    50.00 Ry     beta= 0.01
     Davidson diagonalization with overlap

---- Real-time Memory Report at c_bands before calling an iterative solver
          1677 MiB given to the printing process from OS
          1447 MiB allocation reported by mallinfo(arena+hblkhd)
        318425 MiB available memory on the node where the printing process lives
------------------
     ethr =  1.53E-07,  avg # of iterations = 11.0

     negative rho (up, down):  3.442E-02 3.442E-02

     total cpu time spent up to now is     9148.7 secs

     total energy              =   -1236.04072146 Ry
     estimated scf accuracy    <       0.00031548 Ry

     total magnetization       =     0.00 Bohr mag/cell
     absolute magnetization    =     0.00 Bohr mag/cell

     iteration #185     ecut=    50.00 Ry     beta= 0.01
     Davidson diagonalization with overlap

---- Real-time Memory Report at c_bands before calling an iterative solver
          1677 MiB given to the printing process from OS
          1447 MiB allocation reported by mallinfo(arena+hblkhd)
        318369 MiB available memory on the node where the printing process lives
------------------
     ethr =  1.27E-07,  avg # of iterations =  5.8

     negative rho (up, down):  3.905E-02 3.905E-02

     total cpu time spent up to now is     9199.8 secs

     total energy              =   -1236.04066689 Ry
     estimated scf accuracy    <       0.00027014 Ry

     total magnetization       =     0.00 Bohr mag/cell
     absolute magnetization    =     0.00 Bohr mag/cell

     iteration #186     ecut=    50.00 Ry     beta= 0.01
     Davidson diagonalization with overlap

---- Real-time Memory Report at c_bands before calling an iterative solver
          1677 MiB given to the printing process from OS
          1447 MiB allocation reported by mallinfo(arena+hblkhd)
        318171 MiB available memory on the node where the printing process lives
------------------
     ethr =  1.09E-07,  avg # of iterations =  8.5

     negative rho (up, down):  3.980E-02 3.980E-02

     total cpu time spent up to now is     9252.6 secs

     total energy              =   -1236.04065672 Ry
     estimated scf accuracy    <       0.00024238 Ry

     total magnetization       =    -0.00 Bohr mag/cell
     absolute magnetization    =     0.00 Bohr mag/cell

     iteration #187     ecut=    50.00 Ry     beta= 0.01
     Davidson diagonalization with overlap

---- Real-time Memory Report at c_bands before calling an iterative solver
          1677 MiB given to the printing process from OS
          1447 MiB allocation reported by mallinfo(arena+hblkhd)
        318230 MiB available memory on the node where the printing process lives
------------------
     ethr =  9.77E-08,  avg # of iterations =  1.2

     negative rho (up, down):  3.869E-02 3.869E-02

     total cpu time spent up to now is     9297.4 secs

     total energy              =   -1236.04062331 Ry
     estimated scf accuracy    <       0.00024002 Ry

     total magnetization       =     0.00 Bohr mag/cell
     absolute magnetization    =     0.00 Bohr mag/cell

     iteration #188     ecut=    50.00 Ry     beta= 0.01
     Davidson diagonalization with overlap

---- Real-time Memory Report at c_bands before calling an iterative solver
          1677 MiB given to the printing process from OS
          1447 MiB allocation reported by mallinfo(arena+hblkhd)
        318369 MiB available memory on the node where the printing process lives
------------------
     ethr =  9.68E-08,  avg # of iterations =  2.0

     negative rho (up, down):  3.964E-02 3.964E-02

     total cpu time spent up to now is     9344.1 secs

     total energy              =   -1236.04055481 Ry
     estimated scf accuracy    <       0.00023713 Ry

     total magnetization       =    -0.00 Bohr mag/cell
     absolute magnetization    =     0.00 Bohr mag/cell

     iteration #189     ecut=    50.00 Ry     beta= 0.01
     Davidson diagonalization with overlap

---- Real-time Memory Report at c_bands before calling an iterative solver
          1677 MiB given to the printing process from OS
          1447 MiB allocation reported by mallinfo(arena+hblkhd)
        318139 MiB available memory on the node where the printing process lives
------------------
     ethr =  9.56E-08,  avg # of iterations =  7.0

     negative rho (up, down):  4.240E-02 4.240E-02

     total cpu time spent up to now is     9394.4 secs

     total energy              =   -1236.04055928 Ry
     estimated scf accuracy    <       0.00023242 Ry

     total magnetization       =     0.00 Bohr mag/cell
     absolute magnetization    =     0.00 Bohr mag/cell

     iteration #190     ecut=    50.00 Ry     beta= 0.01
     Davidson diagonalization with overlap

---- Real-time Memory Report at c_bands before calling an iterative solver
          1677 MiB given to the printing process from OS
          1447 MiB allocation reported by mallinfo(arena+hblkhd)
        318307 MiB available memory on the node where the printing process lives
------------------
     ethr =  9.37E-08,  avg # of iterations =  7.8

     negative rho (up, down):  3.835E-02 3.835E-02

     total cpu time spent up to now is     9449.6 secs

     total energy              =   -1236.04050153 Ry
     estimated scf accuracy    <       0.00032990 Ry

     total magnetization       =    -0.00 Bohr mag/cell
     absolute magnetization    =     0.00 Bohr mag/cell

     iteration #191     ecut=    50.00 Ry     beta= 0.01
     Davidson diagonalization with overlap

---- Real-time Memory Report at c_bands before calling an iterative solver
          1677 MiB given to the printing process from OS
          1447 MiB allocation reported by mallinfo(arena+hblkhd)
        318234 MiB available memory on the node where the printing process lives
------------------
     ethr =  9.37E-08,  avg # of iterations =  2.0

     negative rho (up, down):  3.723E-02 3.723E-02

     total cpu time spent up to now is     9496.0 secs

     total energy              =   -1236.04056513 Ry
     estimated scf accuracy    <       0.00021414 Ry

     total magnetization       =     0.00 Bohr mag/cell
     absolute magnetization    =     0.00 Bohr mag/cell

     iteration #192     ecut=    50.00 Ry     beta= 0.01
     Davidson diagonalization with overlap

---- Real-time Memory Report at c_bands before calling an iterative solver
          1677 MiB given to the printing process from OS
          1447 MiB allocation reported by mallinfo(arena+hblkhd)
        318072 MiB available memory on the node where the printing process lives
------------------
     c_bands:  1 eigenvalues not converged
     ethr =  8.63E-08,  avg # of iterations = 11.5

     negative rho (up, down):  4.021E-02 4.021E-02

     total cpu time spent up to now is     9553.9 secs

     total energy              =   -1236.04057866 Ry
     estimated scf accuracy    <       0.00018240 Ry

     total magnetization       =    -0.00 Bohr mag/cell
     absolute magnetization    =     0.00 Bohr mag/cell

     iteration #193     ecut=    50.00 Ry     beta= 0.01
     Davidson diagonalization with overlap

---- Real-time Memory Report at c_bands before calling an iterative solver
          1677 MiB given to the printing process from OS
          1447 MiB allocation reported by mallinfo(arena+hblkhd)
        318114 MiB available memory on the node where the printing process lives
------------------
     ethr =  7.35E-08,  avg # of iterations =  5.0

     negative rho (up, down):  4.280E-02 4.280E-02

     total cpu time spent up to now is     9603.5 secs

     total energy              =   -1236.04060790 Ry
     estimated scf accuracy    <       0.00017109 Ry

     total magnetization       =    -0.00 Bohr mag/cell
     absolute magnetization    =     0.00 Bohr mag/cell

     iteration #194     ecut=    50.00 Ry     beta= 0.01
     Davidson diagonalization with overlap

---- Real-time Memory Report at c_bands before calling an iterative solver
          1677 MiB given to the printing process from OS
          1447 MiB allocation reported by mallinfo(arena+hblkhd)
        317917 MiB available memory on the node where the printing process lives
------------------
     c_bands:  1 eigenvalues not converged
     ethr =  6.90E-08,  avg # of iterations = 18.8

     negative rho (up, down):  4.271E-02 4.271E-02

     total cpu time spent up to now is     9663.7 secs

     total energy              =   -1236.04061981 Ry
     estimated scf accuracy    <       0.00016226 Ry

     total magnetization       =     0.00 Bohr mag/cell
     absolute magnetization    =     0.00 Bohr mag/cell

     iteration #195     ecut=    50.00 Ry     beta= 0.01
     Davidson diagonalization with overlap

---- Real-time Memory Report at c_bands before calling an iterative solver
          1677 MiB given to the printing process from OS
          1447 MiB allocation reported by mallinfo(arena+hblkhd)
        317863 MiB available memory on the node where the printing process lives
------------------
     ethr =  6.54E-08,  avg # of iterations =  1.0

     negative rho (up, down):  4.222E-02 4.222E-02

     total cpu time spent up to now is     9707.1 secs

     total energy              =   -1236.04063731 Ry
     estimated scf accuracy    <       0.00016345 Ry

     total magnetization       =    -0.00 Bohr mag/cell
     absolute magnetization    =     0.00 Bohr mag/cell

     iteration #196     ecut=    50.00 Ry     beta= 0.01
     Davidson diagonalization with overlap

---- Real-time Memory Report at c_bands before calling an iterative solver
          1677 MiB given to the printing process from OS
          1447 MiB allocation reported by mallinfo(arena+hblkhd)
        317770 MiB available memory on the node where the printing process lives
------------------
     ethr =  6.54E-08,  avg # of iterations =  1.0

     negative rho (up, down):  4.200E-02 4.200E-02

     total cpu time spent up to now is     9751.2 secs

     total energy              =   -1236.04065254 Ry
     estimated scf accuracy    <       0.00015320 Ry

     total magnetization       =    -0.00 Bohr mag/cell
     absolute magnetization    =     0.00 Bohr mag/cell

     iteration #197     ecut=    50.00 Ry     beta= 0.01
     Davidson diagonalization with overlap

---- Real-time Memory Report at c_bands before calling an iterative solver
          1677 MiB given to the printing process from OS
          1447 MiB allocation reported by mallinfo(arena+hblkhd)
        317764 MiB available memory on the node where the printing process lives
------------------
     ethr =  6.18E-08,  avg # of iterations =  2.0

     negative rho (up, down):  4.174E-02 4.174E-02

     total cpu time spent up to now is     9798.7 secs

     total energy              =   -1236.04065683 Ry
     estimated scf accuracy    <       0.00015141 Ry

     total magnetization       =     0.00 Bohr mag/cell
     absolute magnetization    =     0.00 Bohr mag/cell

     iteration #198     ecut=    50.00 Ry     beta= 0.01
     Davidson diagonalization with overlap

---- Real-time Memory Report at c_bands before calling an iterative solver
          1677 MiB given to the printing process from OS
          1447 MiB allocation reported by mallinfo(arena+hblkhd)
        317816 MiB available memory on the node where the printing process lives
------------------
     ethr =  6.11E-08,  avg # of iterations =  2.0

     negative rho (up, down):  4.190E-02 4.190E-02

     total cpu time spent up to now is     9845.6 secs

     total energy              =   -1236.04067455 Ry
     estimated scf accuracy    <       0.00017193 Ry

     total magnetization       =     0.00 Bohr mag/cell
     absolute magnetization    =     0.00 Bohr mag/cell

     iteration #199     ecut=    50.00 Ry     beta= 0.01
     Davidson diagonalization with overlap

---- Real-time Memory Report at c_bands before calling an iterative solver
          1677 MiB given to the printing process from OS
          1447 MiB allocation reported by mallinfo(arena+hblkhd)
        317510 MiB available memory on the node where the printing process lives
------------------
     ethr =  6.11E-08,  avg # of iterations =  1.0

     negative rho (up, down):  4.057E-02 4.057E-02

     total cpu time spent up to now is     9889.1 secs

     total energy              =   -1236.04065362 Ry
     estimated scf accuracy    <       0.00018785 Ry

     total magnetization       =    -0.00 Bohr mag/cell
     absolute magnetization    =     0.00 Bohr mag/cell

     iteration #200     ecut=    50.00 Ry     beta= 0.01
     Davidson diagonalization with overlap

---- Real-time Memory Report at c_bands before calling an iterative solver
          1677 MiB given to the printing process from OS
          1447 MiB allocation reported by mallinfo(arena+hblkhd)
        318452 MiB available memory on the node where the printing process lives
------------------
     ethr =  6.11E-08,  avg # of iterations =  1.0

     negative rho (up, down):  4.004E-02 4.004E-02

     total cpu time spent up to now is     9933.1 secs

     total energy              =   -1236.04066059 Ry
     estimated scf accuracy    <       0.00015160 Ry

     total magnetization       =    -0.00 Bohr mag/cell
     absolute magnetization    =     0.00 Bohr mag/cell

     iteration #201     ecut=    50.00 Ry     beta= 0.01
     Davidson diagonalization with overlap

---- Real-time Memory Report at c_bands before calling an iterative solver
          1677 MiB given to the printing process from OS
          1447 MiB allocation reported by mallinfo(arena+hblkhd)
        318535 MiB available memory on the node where the printing process lives
------------------
     ethr =  6.11E-08,  avg # of iterations =  1.8

     negative rho (up, down):  4.096E-02 4.095E-02

     total cpu time spent up to now is     9979.4 secs

     total energy              =   -1236.04066618 Ry
     estimated scf accuracy    <       0.00014433 Ry

     total magnetization       =     0.00 Bohr mag/cell
     absolute magnetization    =     0.00 Bohr mag/cell

     iteration #202     ecut=    50.00 Ry     beta= 0.01
     Davidson diagonalization with overlap

---- Real-time Memory Report at c_bands before calling an iterative solver
          1677 MiB given to the printing process from OS
          1447 MiB allocation reported by mallinfo(arena+hblkhd)
        318522 MiB available memory on the node where the printing process lives
------------------
     ethr =  5.82E-08,  avg # of iterations =  1.0

     negative rho (up, down):  4.207E-02 4.207E-02

     total cpu time spent up to now is    10023.1 secs

     total energy              =   -1236.04068023 Ry
     estimated scf accuracy    <       0.00014577 Ry

     total magnetization       =     0.00 Bohr mag/cell
     absolute magnetization    =     0.00 Bohr mag/cell

     iteration #203     ecut=    50.00 Ry     beta= 0.01
     Davidson diagonalization with overlap

---- Real-time Memory Report at c_bands before calling an iterative solver
          1677 MiB given to the printing process from OS
          1447 MiB allocation reported by mallinfo(arena+hblkhd)
        318472 MiB available memory on the node where the printing process lives
------------------
     ethr =  5.82E-08,  avg # of iterations =  1.0

     negative rho (up, down):  4.057E-02 4.057E-02

     total cpu time spent up to now is    10066.6 secs

     total energy              =   -1236.04067668 Ry
     estimated scf accuracy    <       0.00013176 Ry

     total magnetization       =    -0.00 Bohr mag/cell
     absolute magnetization    =     0.00 Bohr mag/cell

     iteration #204     ecut=    50.00 Ry     beta= 0.01
     Davidson diagonalization with overlap

---- Real-time Memory Report at c_bands before calling an iterative solver
          1677 MiB given to the printing process from OS
          1447 MiB allocation reported by mallinfo(arena+hblkhd)
        318625 MiB available memory on the node where the printing process lives
------------------
     ethr =  5.31E-08,  avg # of iterations =  1.0

     negative rho (up, down):  4.345E-02 4.345E-02

     total cpu time spent up to now is    10110.1 secs

     total energy              =   -1236.04068089 Ry
     estimated scf accuracy    <       0.00013855 Ry

     total magnetization       =    -0.00 Bohr mag/cell
     absolute magnetization    =     0.00 Bohr mag/cell

     iteration #205     ecut=    50.00 Ry     beta= 0.01
     Davidson diagonalization with overlap

---- Real-time Memory Report at c_bands before calling an iterative solver
          1677 MiB given to the printing process from OS
          1447 MiB allocation reported by mallinfo(arena+hblkhd)
        318475 MiB available memory on the node where the printing process lives
------------------
     ethr =  5.31E-08,  avg # of iterations =  2.0

     negative rho (up, down):  4.402E-02 4.402E-02

     total cpu time spent up to now is    10156.8 secs

     total energy              =   -1236.04068042 Ry
     estimated scf accuracy    <       0.00012924 Ry

     total magnetization       =     0.00 Bohr mag/cell
     absolute magnetization    =     0.00 Bohr mag/cell

     iteration #206     ecut=    50.00 Ry     beta= 0.01
     Davidson diagonalization with overlap

---- Real-time Memory Report at c_bands before calling an iterative solver
          1677 MiB given to the printing process from OS
          1447 MiB allocation reported by mallinfo(arena+hblkhd)
        318488 MiB available memory on the node where the printing process lives
------------------
     ethr =  5.21E-08,  avg # of iterations =  2.0

     negative rho (up, down):  4.478E-02 4.478E-02

     total cpu time spent up to now is    10203.9 secs

     total energy              =   -1236.04067879 Ry
     estimated scf accuracy    <       0.00012736 Ry

     total magnetization       =    -0.00 Bohr mag/cell
     absolute magnetization    =     0.00 Bohr mag/cell

     iteration #207     ecut=    50.00 Ry     beta= 0.01
     Davidson diagonalization with overlap

---- Real-time Memory Report at c_bands before calling an iterative solver
          1677 MiB given to the printing process from OS
          1447 MiB allocation reported by mallinfo(arena+hblkhd)
        318275 MiB available memory on the node where the printing process lives
------------------
     ethr =  5.14E-08,  avg # of iterations =  1.0

     negative rho (up, down):  4.325E-02 4.325E-02

     total cpu time spent up to now is    10247.4 secs

     total energy              =   -1236.04069220 Ry
     estimated scf accuracy    <       0.00012847 Ry

     total magnetization       =     0.00 Bohr mag/cell
     absolute magnetization    =     0.00 Bohr mag/cell

     iteration #208     ecut=    50.00 Ry     beta= 0.01
     Davidson diagonalization with overlap

---- Real-time Memory Report at c_bands before calling an iterative solver
          1677 MiB given to the printing process from OS
          1447 MiB allocation reported by mallinfo(arena+hblkhd)
        318731 MiB available memory on the node where the printing process lives
------------------
     ethr =  5.14E-08,  avg # of iterations =  1.0

     negative rho (up, down):  4.356E-02 4.356E-02

     total cpu time spent up to now is    10291.7 secs

     total energy              =   -1236.04069282 Ry
     estimated scf accuracy    <       0.00012761 Ry

     total magnetization       =    -0.00 Bohr mag/cell
     absolute magnetization    =     0.00 Bohr mag/cell

     iteration #209     ecut=    50.00 Ry     beta= 0.01
     Davidson diagonalization with overlap

---- Real-time Memory Report at c_bands before calling an iterative solver
          1677 MiB given to the printing process from OS
          1447 MiB allocation reported by mallinfo(arena+hblkhd)
        318570 MiB available memory on the node where the printing process lives
------------------
     ethr =  5.14E-08,  avg # of iterations =  1.0

     negative rho (up, down):  4.351E-02 4.351E-02

     total cpu time spent up to now is    10336.1 secs

     total energy              =   -1236.04069789 Ry
     estimated scf accuracy    <       0.00012936 Ry

     total magnetization       =     0.00 Bohr mag/cell
     absolute magnetization    =     0.00 Bohr mag/cell

     iteration #210     ecut=    50.00 Ry     beta= 0.01
     Davidson diagonalization with overlap

---- Real-time Memory Report at c_bands before calling an iterative solver
          1677 MiB given to the printing process from OS
          1447 MiB allocation reported by mallinfo(arena+hblkhd)
        318455 MiB available memory on the node where the printing process lives
------------------
     ethr =  5.14E-08,  avg # of iterations =  1.0

     negative rho (up, down):  4.331E-02 4.332E-02

     total cpu time spent up to now is    10380.0 secs

     total energy              =   -1236.04069607 Ry
     estimated scf accuracy    <       0.00012950 Ry

     total magnetization       =     0.00 Bohr mag/cell
     absolute magnetization    =     0.00 Bohr mag/cell

     iteration #211     ecut=    50.00 Ry     beta= 0.01
     Davidson diagonalization with overlap

---- Real-time Memory Report at c_bands before calling an iterative solver
          1677 MiB given to the printing process from OS
          1447 MiB allocation reported by mallinfo(arena+hblkhd)
        318396 MiB available memory on the node where the printing process lives
------------------
     ethr =  5.14E-08,  avg # of iterations =  1.0

     negative rho (up, down):  4.289E-02 4.289E-02

     total cpu time spent up to now is    10423.5 secs

     total energy              =   -1236.04071002 Ry
     estimated scf accuracy    <       0.00012558 Ry

     total magnetization       =    -0.00 Bohr mag/cell
     absolute magnetization    =     0.00 Bohr mag/cell

     iteration #212     ecut=    50.00 Ry     beta= 0.01
     Davidson diagonalization with overlap

---- Real-time Memory Report at c_bands before calling an iterative solver
          1677 MiB given to the printing process from OS
          1447 MiB allocation reported by mallinfo(arena+hblkhd)
        318523 MiB available memory on the node where the printing process lives
------------------
     ethr =  5.06E-08,  avg # of iterations =  1.0

     negative rho (up, down):  4.301E-02 4.301E-02

     total cpu time spent up to now is    10467.1 secs

     total energy              =   -1236.04071873 Ry
     estimated scf accuracy    <       0.00012533 Ry

     total magnetization       =    -0.00 Bohr mag/cell
     absolute magnetization    =     0.00 Bohr mag/cell

     iteration #213     ecut=    50.00 Ry     beta= 0.01
     Davidson diagonalization with overlap

---- Real-time Memory Report at c_bands before calling an iterative solver
          1677 MiB given to the printing process from OS
          1447 MiB allocation reported by mallinfo(arena+hblkhd)
        318137 MiB available memory on the node where the printing process lives
------------------
     ethr =  5.05E-08,  avg # of iterations =  1.0

     negative rho (up, down):  4.103E-02 4.103E-02

     total cpu time spent up to now is    10510.9 secs

     total energy              =   -1236.04070967 Ry
     estimated scf accuracy    <       0.00012567 Ry

     total magnetization       =     0.00 Bohr mag/cell
     absolute magnetization    =     0.00 Bohr mag/cell

     iteration #214     ecut=    50.00 Ry     beta= 0.01
     Davidson diagonalization with overlap

---- Real-time Memory Report at c_bands before calling an iterative solver
          1677 MiB given to the printing process from OS
          1447 MiB allocation reported by mallinfo(arena+hblkhd)
        318070 MiB available memory on the node where the printing process lives
------------------
     ethr =  5.05E-08,  avg # of iterations =  1.0

     negative rho (up, down):  4.150E-02 4.150E-02

     total cpu time spent up to now is    10554.7 secs

     total energy              =   -1236.04071005 Ry
     estimated scf accuracy    <       0.00012451 Ry

     total magnetization       =    -0.00 Bohr mag/cell
     absolute magnetization    =     0.00 Bohr mag/cell

     iteration #215     ecut=    50.00 Ry     beta= 0.01
     Davidson diagonalization with overlap

---- Real-time Memory Report at c_bands before calling an iterative solver
          1677 MiB given to the printing process from OS
          1447 MiB allocation reported by mallinfo(arena+hblkhd)
        318183 MiB available memory on the node where the printing process lives
------------------
     ethr =  5.02E-08,  avg # of iterations =  1.0

     negative rho (up, down):  4.094E-02 4.094E-02

     total cpu time spent up to now is    10598.9 secs

     total energy              =   -1236.04072280 Ry
     estimated scf accuracy    <       0.00012652 Ry

     total magnetization       =     0.00 Bohr mag/cell
     absolute magnetization    =     0.00 Bohr mag/cell

     iteration #216     ecut=    50.00 Ry     beta= 0.01
     Davidson diagonalization with overlap

---- Real-time Memory Report at c_bands before calling an iterative solver
          1677 MiB given to the printing process from OS
          1447 MiB allocation reported by mallinfo(arena+hblkhd)
        318428 MiB available memory on the node where the printing process lives
------------------
     ethr =  5.02E-08,  avg # of iterations =  1.0

     negative rho (up, down):  4.111E-02 4.111E-02

     total cpu time spent up to now is    10643.1 secs

     total energy              =   -1236.04072860 Ry
     estimated scf accuracy    <       0.00012595 Ry

     total magnetization       =     0.00 Bohr mag/cell
     absolute magnetization    =     0.00 Bohr mag/cell

     iteration #217     ecut=    50.00 Ry     beta= 0.01
     Davidson diagonalization with overlap

---- Real-time Memory Report at c_bands before calling an iterative solver
          1677 MiB given to the printing process from OS
          1447 MiB allocation reported by mallinfo(arena+hblkhd)
        318362 MiB available memory on the node where the printing process lives
------------------
     ethr =  5.02E-08,  avg # of iterations =  1.0

     negative rho (up, down):  4.101E-02 4.101E-02

     total cpu time spent up to now is    10686.9 secs

     total energy              =   -1236.04072250 Ry
     estimated scf accuracy    <       0.00012529 Ry

     total magnetization       =    -0.00 Bohr mag/cell
     absolute magnetization    =     0.00 Bohr mag/cell

     iteration #218     ecut=    50.00 Ry     beta= 0.01
     Davidson diagonalization with overlap

---- Real-time Memory Report at c_bands before calling an iterative solver
          1677 MiB given to the printing process from OS
          1447 MiB allocation reported by mallinfo(arena+hblkhd)
        318409 MiB available memory on the node where the printing process lives
------------------
     ethr =  5.02E-08,  avg # of iterations =  1.0

     negative rho (up, down):  4.105E-02 4.105E-02

     total cpu time spent up to now is    10730.6 secs

     total energy              =   -1236.04071350 Ry
     estimated scf accuracy    <       0.00012247 Ry

     total magnetization       =     0.00 Bohr mag/cell
     absolute magnetization    =     0.00 Bohr mag/cell

     iteration #219     ecut=    50.00 Ry     beta= 0.01
     Davidson diagonalization with overlap

---- Real-time Memory Report at c_bands before calling an iterative solver
          1677 MiB given to the printing process from OS
          1447 MiB allocation reported by mallinfo(arena+hblkhd)
        318548 MiB available memory on the node where the printing process lives
------------------
     ethr =  4.94E-08,  avg # of iterations =  1.0

     negative rho (up, down):  4.124E-02 4.124E-02

     total cpu time spent up to now is    10774.3 secs

     total energy              =   -1236.04072421 Ry
     estimated scf accuracy    <       0.00012321 Ry

     total magnetization       =     0.00 Bohr mag/cell
     absolute magnetization    =     0.00 Bohr mag/cell

     iteration #220     ecut=    50.00 Ry     beta= 0.01
     Davidson diagonalization with overlap

---- Real-time Memory Report at c_bands before calling an iterative solver
          1677 MiB given to the printing process from OS
          1447 MiB allocation reported by mallinfo(arena+hblkhd)
        318562 MiB available memory on the node where the printing process lives
------------------
     ethr =  4.94E-08,  avg # of iterations =  1.0

     negative rho (up, down):  4.200E-02 4.200E-02

     total cpu time spent up to now is    10818.2 secs

     total energy              =   -1236.04074596 Ry
     estimated scf accuracy    <       0.00012172 Ry

     total magnetization       =     0.00 Bohr mag/cell
     absolute magnetization    =     0.00 Bohr mag/cell

     iteration #221     ecut=    50.00 Ry     beta= 0.01
     Davidson diagonalization with overlap

---- Real-time Memory Report at c_bands before calling an iterative solver
          1677 MiB given to the printing process from OS
          1447 MiB allocation reported by mallinfo(arena+hblkhd)
        318409 MiB available memory on the node where the printing process lives
------------------
     ethr =  4.91E-08,  avg # of iterations =  1.0

     negative rho (up, down):  4.341E-02 4.341E-02

     total cpu time spent up to now is    10862.1 secs

     total energy              =   -1236.04076135 Ry
     estimated scf accuracy    <       0.00012377 Ry

     total magnetization       =    -0.00 Bohr mag/cell
     absolute magnetization    =     0.00 Bohr mag/cell

     iteration #222     ecut=    50.00 Ry     beta= 0.01
     Davidson diagonalization with overlap

---- Real-time Memory Report at c_bands before calling an iterative solver
          1677 MiB given to the printing process from OS
          1447 MiB allocation reported by mallinfo(arena+hblkhd)
        318316 MiB available memory on the node where the printing process lives
------------------
     ethr =  4.91E-08,  avg # of iterations =  7.0

     negative rho (up, down):  4.394E-02 4.394E-02

     total cpu time spent up to now is    10915.1 secs

     total energy              =   -1236.04078077 Ry
     estimated scf accuracy    <       0.00011630 Ry

     total magnetization       =     0.00 Bohr mag/cell
     absolute magnetization    =     0.00 Bohr mag/cell

     iteration #223     ecut=    50.00 Ry     beta= 0.01
     Davidson diagonalization with overlap

---- Real-time Memory Report at c_bands before calling an iterative solver
          1677 MiB given to the printing process from OS
          1447 MiB allocation reported by mallinfo(arena+hblkhd)
        318235 MiB available memory on the node where the printing process lives
------------------
     ethr =  4.69E-08,  avg # of iterations =  1.8

     negative rho (up, down):  4.398E-02 4.398E-02

     total cpu time spent up to now is    10961.4 secs

     total energy              =   -1236.04078467 Ry
     estimated scf accuracy    <       0.00010104 Ry

     total magnetization       =    -0.00 Bohr mag/cell
     absolute magnetization    =     0.00 Bohr mag/cell

     iteration #224     ecut=    50.00 Ry     beta= 0.01
     Davidson diagonalization with overlap

---- Real-time Memory Report at c_bands before calling an iterative solver
          1677 MiB given to the printing process from OS
          1447 MiB allocation reported by mallinfo(arena+hblkhd)
        318500 MiB available memory on the node where the printing process lives
------------------
     ethr =  4.07E-08,  avg # of iterations =  1.0

     negative rho (up, down):  4.209E-02 4.209E-02

     total cpu time spent up to now is    11005.1 secs

     total energy              =   -1236.04076454 Ry
     estimated scf accuracy    <       0.00009965 Ry

     total magnetization       =    -0.00 Bohr mag/cell
     absolute magnetization    =     0.00 Bohr mag/cell

     iteration #225     ecut=    50.00 Ry     beta= 0.01
     Davidson diagonalization with overlap

---- Real-time Memory Report at c_bands before calling an iterative solver
          1677 MiB given to the printing process from OS
          1447 MiB allocation reported by mallinfo(arena+hblkhd)
        318224 MiB available memory on the node where the printing process lives
------------------
     ethr =  4.02E-08,  avg # of iterations =  1.0

     negative rho (up, down):  3.470E-02 3.470E-02

     total cpu time spent up to now is    11049.0 secs

     total energy              =   -1236.04070866 Ry
     estimated scf accuracy    <       0.00009307 Ry

     total magnetization       =    -0.00 Bohr mag/cell
     absolute magnetization    =     0.00 Bohr mag/cell

     iteration #226     ecut=    50.00 Ry     beta= 0.01
     Davidson diagonalization with overlap

---- Real-time Memory Report at c_bands before calling an iterative solver
          1677 MiB given to the printing process from OS
          1447 MiB allocation reported by mallinfo(arena+hblkhd)
        318265 MiB available memory on the node where the printing process lives
------------------
     ethr =  3.75E-08,  avg # of iterations =  5.0

     negative rho (up, down):  3.105E-02 3.105E-02

     total cpu time spent up to now is    11101.1 secs

     total energy              =   -1236.04073829 Ry
     estimated scf accuracy    <       0.00010348 Ry

     total magnetization       =    -0.00 Bohr mag/cell
     absolute magnetization    =     0.00 Bohr mag/cell

     iteration #227     ecut=    50.00 Ry     beta= 0.01
     Davidson diagonalization with overlap

---- Real-time Memory Report at c_bands before calling an iterative solver
          1677 MiB given to the printing process from OS
          1447 MiB allocation reported by mallinfo(arena+hblkhd)
        318216 MiB available memory on the node where the printing process lives
------------------
     ethr =  3.75E-08,  avg # of iterations = 10.2

     negative rho (up, down):  3.076E-02 3.076E-02

     total cpu time spent up to now is    11164.0 secs

     total energy              =   -1236.04076348 Ry
     estimated scf accuracy    <       0.00004779 Ry

     total magnetization       =     0.00 Bohr mag/cell
     absolute magnetization    =     0.00 Bohr mag/cell

     iteration #228     ecut=    50.00 Ry     beta= 0.01
     Davidson diagonalization with overlap

---- Real-time Memory Report at c_bands before calling an iterative solver
          1677 MiB given to the printing process from OS
          1447 MiB allocation reported by mallinfo(arena+hblkhd)
        317916 MiB available memory on the node where the printing process lives
------------------
     ethr =  1.93E-08,  avg # of iterations =  1.0

     negative rho (up, down):  3.095E-02 3.095E-02

     total cpu time spent up to now is    11207.6 secs

     total energy              =   -1236.04077804 Ry
     estimated scf accuracy    <       0.00004637 Ry

     total magnetization       =    -0.00 Bohr mag/cell
     absolute magnetization    =     0.00 Bohr mag/cell

     iteration #229     ecut=    50.00 Ry     beta= 0.01
     Davidson diagonalization with overlap

---- Real-time Memory Report at c_bands before calling an iterative solver
          1677 MiB given to the printing process from OS
          1447 MiB allocation reported by mallinfo(arena+hblkhd)
        318314 MiB available memory on the node where the printing process lives
------------------
     ethr =  1.87E-08,  avg # of iterations =  1.0

     negative rho (up, down):  2.705E-02 2.705E-02

     total cpu time spent up to now is    11251.2 secs

     total energy              =   -1236.04081434 Ry
     estimated scf accuracy    <       0.00004454 Ry

     total magnetization       =     0.00 Bohr mag/cell
     absolute magnetization    =     0.00 Bohr mag/cell

     iteration #230     ecut=    50.00 Ry     beta= 0.01
     Davidson diagonalization with overlap

---- Real-time Memory Report at c_bands before calling an iterative solver
          1677 MiB given to the printing process from OS
          1447 MiB allocation reported by mallinfo(arena+hblkhd)
        318104 MiB available memory on the node where the printing process lives
------------------
     ethr =  1.80E-08,  avg # of iterations =  5.2

     negative rho (up, down):  2.538E-02 2.538E-02

     total cpu time spent up to now is    11307.3 secs

     total energy              =   -1236.04075859 Ry
     estimated scf accuracy    <       0.00005787 Ry

     total magnetization       =    -0.00 Bohr mag/cell
     absolute magnetization    =     0.00 Bohr mag/cell

     iteration #231     ecut=    50.00 Ry     beta= 0.01
     Davidson diagonalization with overlap

---- Real-time Memory Report at c_bands before calling an iterative solver
          1677 MiB given to the printing process from OS
          1447 MiB allocation reported by mallinfo(arena+hblkhd)
        318315 MiB available memory on the node where the printing process lives
------------------
     ethr =  1.80E-08,  avg # of iterations =  2.0

     negative rho (up, down):  2.532E-02 2.532E-02

     total cpu time spent up to now is    11364.1 secs

     total energy              =   -1236.04075167 Ry
     estimated scf accuracy    <       0.00003551 Ry

     total magnetization       =    -0.00 Bohr mag/cell
     absolute magnetization    =     0.00 Bohr mag/cell

     iteration #232     ecut=    50.00 Ry     beta= 0.01
     Davidson diagonalization with overlap

---- Real-time Memory Report at c_bands before calling an iterative solver
          1677 MiB given to the printing process from OS
          1447 MiB allocation reported by mallinfo(arena+hblkhd)
        318435 MiB available memory on the node where the printing process lives
------------------
     ethr =  1.43E-08,  avg # of iterations =  1.0

     negative rho (up, down):  2.570E-02 2.570E-02

     total cpu time spent up to now is    11407.9 secs

     total energy              =   -1236.04072870 Ry
     estimated scf accuracy    <       0.00003362 Ry

     total magnetization       =     0.00 Bohr mag/cell
     absolute magnetization    =     0.00 Bohr mag/cell

     iteration #233     ecut=    50.00 Ry     beta= 0.01
     Davidson diagonalization with overlap

---- Real-time Memory Report at c_bands before calling an iterative solver
          1677 MiB given to the printing process from OS
          1447 MiB allocation reported by mallinfo(arena+hblkhd)
        318424 MiB available memory on the node where the printing process lives
------------------
     ethr =  1.36E-08,  avg # of iterations =  1.0

     negative rho (up, down):  2.524E-02 2.524E-02

     total cpu time spent up to now is    11451.4 secs

     total energy              =   -1236.04072682 Ry
     estimated scf accuracy    <       0.00003031 Ry

     total magnetization       =     0.00 Bohr mag/cell
     absolute magnetization    =     0.00 Bohr mag/cell

     iteration #234     ecut=    50.00 Ry     beta= 0.01
     Davidson diagonalization with overlap

---- Real-time Memory Report at c_bands before calling an iterative solver
          1677 MiB given to the printing process from OS
          1447 MiB allocation reported by mallinfo(arena+hblkhd)
        318350 MiB available memory on the node where the printing process lives
------------------
     ethr =  1.22E-08,  avg # of iterations =  1.0

     negative rho (up, down):  2.504E-02 2.504E-02

     total cpu time spent up to now is    11495.5 secs

     total energy              =   -1236.04074432 Ry
     estimated scf accuracy    <       0.00003033 Ry

     total magnetization       =     0.00 Bohr mag/cell
     absolute magnetization    =     0.00 Bohr mag/cell

     iteration #235     ecut=    50.00 Ry     beta= 0.01
     Davidson diagonalization with overlap

---- Real-time Memory Report at c_bands before calling an iterative solver
          1677 MiB given to the printing process from OS
          1447 MiB allocation reported by mallinfo(arena+hblkhd)
        318206 MiB available memory on the node where the printing process lives
------------------
     ethr =  1.22E-08,  avg # of iterations =  2.0

     negative rho (up, down):  2.550E-02 2.550E-02

     total cpu time spent up to now is    11545.5 secs

     total energy              =   -1236.04075201 Ry
     estimated scf accuracy    <       0.00003962 Ry

     total magnetization       =    -0.00 Bohr mag/cell
     absolute magnetization    =     0.00 Bohr mag/cell

     iteration #236     ecut=    50.00 Ry     beta= 0.01
     Davidson diagonalization with overlap

---- Real-time Memory Report at c_bands before calling an iterative solver
          1677 MiB given to the printing process from OS
          1447 MiB allocation reported by mallinfo(arena+hblkhd)
        318230 MiB available memory on the node where the printing process lives
------------------
     ethr =  1.22E-08,  avg # of iterations =  1.0

     negative rho (up, down):  2.550E-02 2.550E-02

     total cpu time spent up to now is    11589.3 secs

     total energy              =   -1236.04075203 Ry
     estimated scf accuracy    <       0.00004190 Ry

     total magnetization       =    -0.00 Bohr mag/cell
     absolute magnetization    =     0.00 Bohr mag/cell

     iteration #237     ecut=    50.00 Ry     beta= 0.01
     Davidson diagonalization with overlap

---- Real-time Memory Report at c_bands before calling an iterative solver
          1677 MiB given to the printing process from OS
          1447 MiB allocation reported by mallinfo(arena+hblkhd)
        318617 MiB available memory on the node where the printing process lives
------------------
     ethr =  1.22E-08,  avg # of iterations =  1.0

     negative rho (up, down):  2.520E-02 2.520E-02

     total cpu time spent up to now is    11632.7 secs

     total energy              =   -1236.04073050 Ry
     estimated scf accuracy    <       0.00004224 Ry

     total magnetization       =     0.00 Bohr mag/cell
     absolute magnetization    =     0.00 Bohr mag/cell

     iteration #238     ecut=    50.00 Ry     beta= 0.01
     Davidson diagonalization with overlap

---- Real-time Memory Report at c_bands before calling an iterative solver
          1677 MiB given to the printing process from OS
          1447 MiB allocation reported by mallinfo(arena+hblkhd)
        318600 MiB available memory on the node where the printing process lives
------------------
     ethr =  1.22E-08,  avg # of iterations =  1.0

     negative rho (up, down):  2.509E-02 2.509E-02

     total cpu time spent up to now is    11676.3 secs

     total energy              =   -1236.04073620 Ry
     estimated scf accuracy    <       0.00003502 Ry

     total magnetization       =    -0.00 Bohr mag/cell
     absolute magnetization    =     0.00 Bohr mag/cell

     iteration #239     ecut=    50.00 Ry     beta= 0.01
     Davidson diagonalization with overlap

---- Real-time Memory Report at c_bands before calling an iterative solver
          1677 MiB given to the printing process from OS
          1447 MiB allocation reported by mallinfo(arena+hblkhd)
        318605 MiB available memory on the node where the printing process lives
------------------
     ethr =  1.22E-08,  avg # of iterations =  1.0

     negative rho (up, down):  2.376E-02 2.376E-02

     total cpu time spent up to now is    11719.9 secs

     total energy              =   -1236.04073127 Ry
     estimated scf accuracy    <       0.00003802 Ry

     total magnetization       =    -0.00 Bohr mag/cell
     absolute magnetization    =     0.00 Bohr mag/cell

     iteration #240     ecut=    50.00 Ry     beta= 0.01
     Davidson diagonalization with overlap

---- Real-time Memory Report at c_bands before calling an iterative solver
          1677 MiB given to the printing process from OS
          1447 MiB allocation reported by mallinfo(arena+hblkhd)
        318409 MiB available memory on the node where the printing process lives
------------------
     ethr =  1.22E-08,  avg # of iterations =  1.0

     negative rho (up, down):  2.363E-02 2.363E-02

     total cpu time spent up to now is    11763.9 secs

     total energy              =   -1236.04073052 Ry
     estimated scf accuracy    <       0.00003811 Ry

     total magnetization       =    -0.00 Bohr mag/cell
     absolute magnetization    =     0.00 Bohr mag/cell

     iteration #241     ecut=    50.00 Ry     beta= 0.01
     Davidson diagonalization with overlap

---- Real-time Memory Report at c_bands before calling an iterative solver
          1677 MiB given to the printing process from OS
          1447 MiB allocation reported by mallinfo(arena+hblkhd)
        318335 MiB available memory on the node where the printing process lives
------------------
     ethr =  1.22E-08,  avg # of iterations =  1.0

     negative rho (up, down):  2.400E-02 2.400E-02

     total cpu time spent up to now is    11807.4 secs

     total energy              =   -1236.04073276 Ry
     estimated scf accuracy    <       0.00003504 Ry

     total magnetization       =    -0.00 Bohr mag/cell
     absolute magnetization    =     0.00 Bohr mag/cell

     iteration #242     ecut=    50.00 Ry     beta= 0.01
     Davidson diagonalization with overlap

---- Real-time Memory Report at c_bands before calling an iterative solver
          1677 MiB given to the printing process from OS
          1447 MiB allocation reported by mallinfo(arena+hblkhd)
        318504 MiB available memory on the node where the printing process lives
------------------
     ethr =  1.22E-08,  avg # of iterations =  1.0

     negative rho (up, down):  2.408E-02 2.408E-02

     total cpu time spent up to now is    11851.0 secs

     total energy              =   -1236.04074420 Ry
     estimated scf accuracy    <       0.00003159 Ry

     total magnetization       =    -0.00 Bohr mag/cell
     absolute magnetization    =     0.00 Bohr mag/cell

     iteration #243     ecut=    50.00 Ry     beta= 0.01
     Davidson diagonalization with overlap

---- Real-time Memory Report at c_bands before calling an iterative solver
          1677 MiB given to the printing process from OS
          1447 MiB allocation reported by mallinfo(arena+hblkhd)
        318178 MiB available memory on the node where the printing process lives
------------------
     ethr =  1.22E-08,  avg # of iterations =  1.0

     negative rho (up, down):  2.348E-02 2.348E-02

     total cpu time spent up to now is    11895.2 secs

     total energy              =   -1236.04072472 Ry
     estimated scf accuracy    <       0.00002933 Ry

     total magnetization       =    -0.00 Bohr mag/cell
     absolute magnetization    =     0.00 Bohr mag/cell

     iteration #244     ecut=    50.00 Ry     beta= 0.01
     Davidson diagonalization with overlap

---- Real-time Memory Report at c_bands before calling an iterative solver
          1677 MiB given to the printing process from OS
          1447 MiB allocation reported by mallinfo(arena+hblkhd)
        318255 MiB available memory on the node where the printing process lives
------------------
     ethr =  1.18E-08,  avg # of iterations =  1.0

     negative rho (up, down):  2.232E-02 2.232E-02

     total cpu time spent up to now is    11938.7 secs

     total energy              =   -1236.04074604 Ry
     estimated scf accuracy    <       0.00003486 Ry

     total magnetization       =     0.00 Bohr mag/cell
     absolute magnetization    =     0.00 Bohr mag/cell

     iteration #245     ecut=    50.00 Ry     beta= 0.01
     Davidson diagonalization with overlap

---- Real-time Memory Report at c_bands before calling an iterative solver
          1677 MiB given to the printing process from OS
          1447 MiB allocation reported by mallinfo(arena+hblkhd)
        318338 MiB available memory on the node where the printing process lives
------------------
     ethr =  1.18E-08,  avg # of iterations =  1.0

     negative rho (up, down):  2.091E-02 2.091E-02

     total cpu time spent up to now is    11982.3 secs

     total energy              =   -1236.04076810 Ry
     estimated scf accuracy    <       0.00002930 Ry

     total magnetization       =    -0.00 Bohr mag/cell
     absolute magnetization    =     0.00 Bohr mag/cell

     iteration #246     ecut=    50.00 Ry     beta= 0.01
     Davidson diagonalization with overlap

---- Real-time Memory Report at c_bands before calling an iterative solver
          1677 MiB given to the printing process from OS
          1447 MiB allocation reported by mallinfo(arena+hblkhd)
        318416 MiB available memory on the node where the printing process lives
------------------
     ethr =  1.18E-08,  avg # of iterations =  1.0

     negative rho (up, down):  2.026E-02 2.026E-02

     total cpu time spent up to now is    12026.5 secs

     total energy              =   -1236.04078251 Ry
     estimated scf accuracy    <       0.00002733 Ry

     total magnetization       =    -0.00 Bohr mag/cell
     absolute magnetization    =     0.00 Bohr mag/cell

     iteration #247     ecut=    50.00 Ry     beta= 0.01
     Davidson diagonalization with overlap

---- Real-time Memory Report at c_bands before calling an iterative solver
          1677 MiB given to the printing process from OS
          1447 MiB allocation reported by mallinfo(arena+hblkhd)
        318386 MiB available memory on the node where the printing process lives
------------------
     ethr =  1.10E-08,  avg # of iterations =  1.0

     negative rho (up, down):  2.003E-02 2.003E-02

     total cpu time spent up to now is    12070.6 secs

     total energy              =   -1236.04078986 Ry
     estimated scf accuracy    <       0.00002183 Ry

     total magnetization       =     0.00 Bohr mag/cell
     absolute magnetization    =     0.00 Bohr mag/cell

     iteration #248     ecut=    50.00 Ry     beta= 0.01
     Davidson diagonalization with overlap

---- Real-time Memory Report at c_bands before calling an iterative solver
          1677 MiB given to the printing process from OS
          1447 MiB allocation reported by mallinfo(arena+hblkhd)
        318241 MiB available memory on the node where the printing process lives
------------------
     ethr =  8.80E-09,  avg # of iterations =  2.0

     negative rho (up, down):  2.009E-02 2.009E-02

     total cpu time spent up to now is    12117.4 secs

     total energy              =   -1236.04078177 Ry
     estimated scf accuracy    <       0.00001796 Ry

     total magnetization       =     0.00 Bohr mag/cell
     absolute magnetization    =     0.00 Bohr mag/cell

     iteration #249     ecut=    50.00 Ry     beta= 0.01
     Davidson diagonalization with overlap

---- Real-time Memory Report at c_bands before calling an iterative solver
          1677 MiB given to the printing process from OS
          1447 MiB allocation reported by mallinfo(arena+hblkhd)
        318380 MiB available memory on the node where the printing process lives
------------------
     ethr =  7.24E-09,  avg # of iterations =  1.0

     negative rho (up, down):  1.891E-02 1.891E-02

     total cpu time spent up to now is    12160.9 secs

     total energy              =   -1236.04075410 Ry
     estimated scf accuracy    <       0.00001720 Ry

     total magnetization       =    -0.00 Bohr mag/cell
     absolute magnetization    =     0.00 Bohr mag/cell

     iteration #250     ecut=    50.00 Ry     beta= 0.01
     Davidson diagonalization with overlap

---- Real-time Memory Report at c_bands before calling an iterative solver
          1677 MiB given to the printing process from OS
          1447 MiB allocation reported by mallinfo(arena+hblkhd)
        318140 MiB available memory on the node where the printing process lives
------------------
     ethr =  6.94E-09,  avg # of iterations =  1.8

     negative rho (up, down):  1.821E-02 1.821E-02

     total cpu time spent up to now is    12207.3 secs

     total energy              =   -1236.04075274 Ry
     estimated scf accuracy    <       0.00001504 Ry

     total magnetization       =    -0.00 Bohr mag/cell
     absolute magnetization    =     0.00 Bohr mag/cell

     iteration #251     ecut=    50.00 Ry     beta= 0.01
     Davidson diagonalization with overlap

---- Real-time Memory Report at c_bands before calling an iterative solver
          1677 MiB given to the printing process from OS
          1447 MiB allocation reported by mallinfo(arena+hblkhd)
        318623 MiB available memory on the node where the printing process lives
------------------
     ethr =  6.06E-09,  avg # of iterations =  1.0

     negative rho (up, down):  1.584E-02 1.584E-02

     total cpu time spent up to now is    12250.8 secs

     total energy              =   -1236.04076397 Ry
     estimated scf accuracy    <       0.00001537 Ry

     total magnetization       =    -0.00 Bohr mag/cell
     absolute magnetization    =     0.00 Bohr mag/cell

     iteration #252     ecut=    50.00 Ry     beta= 0.01
     Davidson diagonalization with overlap

---- Real-time Memory Report at c_bands before calling an iterative solver
          1677 MiB given to the printing process from OS
          1447 MiB allocation reported by mallinfo(arena+hblkhd)
        318504 MiB available memory on the node where the printing process lives
------------------
     ethr =  6.06E-09,  avg # of iterations =  4.2

     negative rho (up, down):  1.339E-02 1.339E-02

     total cpu time spent up to now is    12299.6 secs

     total energy              =   -1236.04073938 Ry
     estimated scf accuracy    <       0.00001421 Ry

     total magnetization       =     0.00 Bohr mag/cell
     absolute magnetization    =     0.00 Bohr mag/cell

     iteration #253     ecut=    50.00 Ry     beta= 0.01
     Davidson diagonalization with overlap

---- Real-time Memory Report at c_bands before calling an iterative solver
          1677 MiB given to the printing process from OS
          1447 MiB allocation reported by mallinfo(arena+hblkhd)
        318504 MiB available memory on the node where the printing process lives
------------------
     ethr =  5.73E-09,  avg # of iterations =  6.5

     negative rho (up, down):  1.313E-02 1.313E-02

     total cpu time spent up to now is    12353.5 secs

     total energy              =   -1236.04073515 Ry
     estimated scf accuracy    <       0.00000805 Ry

     total magnetization       =    -0.00 Bohr mag/cell
     absolute magnetization    =     0.00 Bohr mag/cell

     iteration #254     ecut=    50.00 Ry     beta= 0.01
     Davidson diagonalization with overlap

---- Real-time Memory Report at c_bands before calling an iterative solver
          1677 MiB given to the printing process from OS
          1447 MiB allocation reported by mallinfo(arena+hblkhd)
        318267 MiB available memory on the node where the printing process lives
------------------
     ethr =  3.25E-09,  avg # of iterations =  1.0

     negative rho (up, down):  1.269E-02 1.269E-02

     total cpu time spent up to now is    12397.1 secs

     total energy              =   -1236.04073380 Ry
     estimated scf accuracy    <       0.00000804 Ry

     total magnetization       =     0.00 Bohr mag/cell
     absolute magnetization    =     0.00 Bohr mag/cell

     iteration #255     ecut=    50.00 Ry     beta= 0.01
     Davidson diagonalization with overlap

---- Real-time Memory Report at c_bands before calling an iterative solver
          1677 MiB given to the printing process from OS
          1447 MiB allocation reported by mallinfo(arena+hblkhd)
        318102 MiB available memory on the node where the printing process lives
------------------
     ethr =  3.24E-09,  avg # of iterations =  1.0

     negative rho (up, down):  1.244E-02 1.244E-02

     total cpu time spent up to now is    12440.6 secs

     total energy              =   -1236.04073744 Ry
     estimated scf accuracy    <       0.00000754 Ry

     total magnetization       =    -0.00 Bohr mag/cell
     absolute magnetization    =     0.00 Bohr mag/cell

     iteration #256     ecut=    50.00 Ry     beta= 0.01
     Davidson diagonalization with overlap

---- Real-time Memory Report at c_bands before calling an iterative solver
          1677 MiB given to the printing process from OS
          1447 MiB allocation reported by mallinfo(arena+hblkhd)
        318587 MiB available memory on the node where the printing process lives
------------------
     ethr =  3.04E-09,  avg # of iterations =  1.0

     negative rho (up, down):  1.242E-02 1.242E-02

     total cpu time spent up to now is    12484.4 secs

     total energy              =   -1236.04074088 Ry
     estimated scf accuracy    <       0.00000748 Ry

     total magnetization       =     0.00 Bohr mag/cell
     absolute magnetization    =     0.00 Bohr mag/cell

     iteration #257     ecut=    50.00 Ry     beta= 0.01
     Davidson diagonalization with overlap

---- Real-time Memory Report at c_bands before calling an iterative solver
          1677 MiB given to the printing process from OS
          1447 MiB allocation reported by mallinfo(arena+hblkhd)
        318680 MiB available memory on the node where the printing process lives
------------------
     ethr =  3.02E-09,  avg # of iterations =  1.0

     negative rho (up, down):  1.240E-02 1.240E-02

     total cpu time spent up to now is    12528.0 secs

     total energy              =   -1236.04073918 Ry
     estimated scf accuracy    <       0.00000766 Ry

     total magnetization       =    -0.00 Bohr mag/cell
     absolute magnetization    =     0.00 Bohr mag/cell

     iteration #258     ecut=    50.00 Ry     beta= 0.01
     Davidson diagonalization with overlap

---- Real-time Memory Report at c_bands before calling an iterative solver
          1677 MiB given to the printing process from OS
          1447 MiB allocation reported by mallinfo(arena+hblkhd)
        318363 MiB available memory on the node where the printing process lives
------------------
     ethr =  3.02E-09,  avg # of iterations =  1.0

     negative rho (up, down):  1.237E-02 1.237E-02

     total cpu time spent up to now is    12571.6 secs

     total energy              =   -1236.04074045 Ry
     estimated scf accuracy    <       0.00000776 Ry

     total magnetization       =     0.00 Bohr mag/cell
     absolute magnetization    =     0.00 Bohr mag/cell

     iteration #259     ecut=    50.00 Ry     beta= 0.01
     Davidson diagonalization with overlap

---- Real-time Memory Report at c_bands before calling an iterative solver
          1677 MiB given to the printing process from OS
          1447 MiB allocation reported by mallinfo(arena+hblkhd)
        318605 MiB available memory on the node where the printing process lives
------------------
     ethr =  3.02E-09,  avg # of iterations =  1.0

     negative rho (up, down):  1.238E-02 1.238E-02

     total cpu time spent up to now is    12615.4 secs

     total energy              =   -1236.04074264 Ry
     estimated scf accuracy    <       0.00000776 Ry

     total magnetization       =     0.00 Bohr mag/cell
     absolute magnetization    =     0.00 Bohr mag/cell

     iteration #260     ecut=    50.00 Ry     beta= 0.01
     Davidson diagonalization with overlap

---- Real-time Memory Report at c_bands before calling an iterative solver
          1677 MiB given to the printing process from OS
          1447 MiB allocation reported by mallinfo(arena+hblkhd)
        318717 MiB available memory on the node where the printing process lives
------------------
     ethr =  3.02E-09,  avg # of iterations =  1.0

     negative rho (up, down):  1.234E-02 1.234E-02

     total cpu time spent up to now is    12659.2 secs

     total energy              =   -1236.04074228 Ry
     estimated scf accuracy    <       0.00000775 Ry

     total magnetization       =    -0.00 Bohr mag/cell
     absolute magnetization    =     0.00 Bohr mag/cell

     iteration #261     ecut=    50.00 Ry     beta= 0.01
     Davidson diagonalization with overlap

---- Real-time Memory Report at c_bands before calling an iterative solver
          1677 MiB given to the printing process from OS
          1447 MiB allocation reported by mallinfo(arena+hblkhd)
        318431 MiB available memory on the node where the printing process lives
------------------
     ethr =  3.02E-09,  avg # of iterations =  1.0

     negative rho (up, down):  1.229E-02 1.229E-02

     total cpu time spent up to now is    12702.8 secs

     total energy              =   -1236.04074119 Ry
     estimated scf accuracy    <       0.00000789 Ry

     total magnetization       =    -0.00 Bohr mag/cell
     absolute magnetization    =     0.00 Bohr mag/cell

     iteration #262     ecut=    50.00 Ry     beta= 0.01
     Davidson diagonalization with overlap

---- Real-time Memory Report at c_bands before calling an iterative solver
          1677 MiB given to the printing process from OS
          1447 MiB allocation reported by mallinfo(arena+hblkhd)
        318448 MiB available memory on the node where the printing process lives
------------------
     ethr =  3.02E-09,  avg # of iterations =  1.0

     negative rho (up, down):  1.234E-02 1.234E-02

     total cpu time spent up to now is    12746.3 secs

     total energy              =   -1236.04075368 Ry
     estimated scf accuracy    <       0.00000798 Ry

     total magnetization       =    -0.00 Bohr mag/cell
     absolute magnetization    =     0.00 Bohr mag/cell

     iteration #263     ecut=    50.00 Ry     beta= 0.01
     Davidson diagonalization with overlap

---- Real-time Memory Report at c_bands before calling an iterative solver
          1677 MiB given to the printing process from OS
          1447 MiB allocation reported by mallinfo(arena+hblkhd)
        318705 MiB available memory on the node where the printing process lives
------------------
     ethr =  3.02E-09,  avg # of iterations =  1.0

     negative rho (up, down):  1.237E-02 1.237E-02

     total cpu time spent up to now is    12790.3 secs

     total energy              =   -1236.04075536 Ry
     estimated scf accuracy    <       0.00000852 Ry

     total magnetization       =     0.00 Bohr mag/cell
     absolute magnetization    =     0.00 Bohr mag/cell

     iteration #264     ecut=    50.00 Ry     beta= 0.01
     Davidson diagonalization with overlap

---- Real-time Memory Report at c_bands before calling an iterative solver
          1677 MiB given to the printing process from OS
          1447 MiB allocation reported by mallinfo(arena+hblkhd)
        318657 MiB available memory on the node where the printing process lives
------------------
     ethr =  3.02E-09,  avg # of iterations =  1.0

     negative rho (up, down):  1.236E-02 1.236E-02

     total cpu time spent up to now is    12833.9 secs

     total energy              =   -1236.04075381 Ry
     estimated scf accuracy    <       0.00000860 Ry

     total magnetization       =    -0.00 Bohr mag/cell
     absolute magnetization    =     0.00 Bohr mag/cell

     iteration #265     ecut=    50.00 Ry     beta= 0.01
     Davidson diagonalization with overlap

---- Real-time Memory Report at c_bands before calling an iterative solver
          1677 MiB given to the printing process from OS
          1447 MiB allocation reported by mallinfo(arena+hblkhd)
        318411 MiB available memory on the node where the printing process lives
------------------
     ethr =  3.02E-09,  avg # of iterations =  1.0

     negative rho (up, down):  1.228E-02 1.228E-02

     total cpu time spent up to now is    12877.3 secs

     total energy              =   -1236.04075564 Ry
     estimated scf accuracy    <       0.00000756 Ry

     total magnetization       =     0.00 Bohr mag/cell
     absolute magnetization    =     0.00 Bohr mag/cell

     iteration #266     ecut=    50.00 Ry     beta= 0.01
     Davidson diagonalization with overlap

---- Real-time Memory Report at c_bands before calling an iterative solver
          1677 MiB given to the printing process from OS
          1447 MiB allocation reported by mallinfo(arena+hblkhd)
        318592 MiB available memory on the node where the printing process lives
------------------
     ethr =  3.02E-09,  avg # of iterations =  1.0

     negative rho (up, down):  1.233E-02 1.233E-02

     total cpu time spent up to now is    12921.4 secs

     total energy              =   -1236.04075471 Ry
     estimated scf accuracy    <       0.00000921 Ry

     total magnetization       =    -0.00 Bohr mag/cell
     absolute magnetization    =     0.00 Bohr mag/cell

     iteration #267     ecut=    50.00 Ry     beta= 0.01
     Davidson diagonalization with overlap

---- Real-time Memory Report at c_bands before calling an iterative solver
          1677 MiB given to the printing process from OS
          1447 MiB allocation reported by mallinfo(arena+hblkhd)
        318569 MiB available memory on the node where the printing process lives
------------------
     ethr =  3.02E-09,  avg # of iterations =  1.0

     negative rho (up, down):  1.247E-02 1.247E-02

     total cpu time spent up to now is    12965.1 secs

     total energy              =   -1236.04075596 Ry
     estimated scf accuracy    <       0.00000900 Ry

     total magnetization       =    -0.00 Bohr mag/cell
     absolute magnetization    =     0.00 Bohr mag/cell

     iteration #268     ecut=    50.00 Ry     beta= 0.01
     Davidson diagonalization with overlap

---- Real-time Memory Report at c_bands before calling an iterative solver
          1677 MiB given to the printing process from OS
          1447 MiB allocation reported by mallinfo(arena+hblkhd)
        318200 MiB available memory on the node where the printing process lives
------------------
     ethr =  3.02E-09,  avg # of iterations =  1.0

     negative rho (up, down):  1.189E-02 1.189E-02

     total cpu time spent up to now is    13008.6 secs

     total energy              =   -1236.04075575 Ry
     estimated scf accuracy    <       0.00000849 Ry

     total magnetization       =    -0.00 Bohr mag/cell
     absolute magnetization    =     0.00 Bohr mag/cell

     iteration #269     ecut=    50.00 Ry     beta= 0.01
     Davidson diagonalization with overlap

---- Real-time Memory Report at c_bands before calling an iterative solver
          1677 MiB given to the printing process from OS
          1447 MiB allocation reported by mallinfo(arena+hblkhd)
        318574 MiB available memory on the node where the printing process lives
------------------
     ethr =  3.02E-09,  avg # of iterations =  1.0

     negative rho (up, down):  1.184E-02 1.184E-02

     total cpu time spent up to now is    13052.3 secs

     total energy              =   -1236.04075638 Ry
     estimated scf accuracy    <       0.00001091 Ry

     total magnetization       =    -0.00 Bohr mag/cell
     absolute magnetization    =     0.00 Bohr mag/cell

     iteration #270     ecut=    50.00 Ry     beta= 0.01
     Davidson diagonalization with overlap

---- Real-time Memory Report at c_bands before calling an iterative solver
          1677 MiB given to the printing process from OS
          1447 MiB allocation reported by mallinfo(arena+hblkhd)
        318596 MiB available memory on the node where the printing process lives
------------------
     ethr =  3.02E-09,  avg # of iterations =  1.0

     negative rho (up, down):  1.237E-02 1.237E-02

     total cpu time spent up to now is    13096.2 secs

     total energy              =   -1236.04074669 Ry
     estimated scf accuracy    <       0.00001201 Ry

     total magnetization       =     0.00 Bohr mag/cell
     absolute magnetization    =     0.00 Bohr mag/cell

     iteration #271     ecut=    50.00 Ry     beta= 0.01
     Davidson diagonalization with overlap

---- Real-time Memory Report at c_bands before calling an iterative solver
          1677 MiB given to the printing process from OS
          1447 MiB allocation reported by mallinfo(arena+hblkhd)
        318414 MiB available memory on the node where the printing process lives
------------------
     ethr =  3.02E-09,  avg # of iterations =  1.0

     negative rho (up, down):  1.239E-02 1.239E-02

     total cpu time spent up to now is    13139.8 secs

     total energy              =   -1236.04074587 Ry
     estimated scf accuracy    <       0.00000857 Ry

     total magnetization       =    -0.00 Bohr mag/cell
     absolute magnetization    =     0.00 Bohr mag/cell

     iteration #272     ecut=    50.00 Ry     beta= 0.01
     Davidson diagonalization with overlap

---- Real-time Memory Report at c_bands before calling an iterative solver
          1677 MiB given to the printing process from OS
          1447 MiB allocation reported by mallinfo(arena+hblkhd)
        318441 MiB available memory on the node where the printing process lives
------------------
     ethr =  3.02E-09,  avg # of iterations =  1.0

     negative rho (up, down):  1.233E-02 1.233E-02

     total cpu time spent up to now is    13183.4 secs

     total energy              =   -1236.04074498 Ry
     estimated scf accuracy    <       0.00000815 Ry

     total magnetization       =    -0.00 Bohr mag/cell
     absolute magnetization    =     0.00 Bohr mag/cell

     iteration #273     ecut=    50.00 Ry     beta= 0.01
     Davidson diagonalization with overlap

---- Real-time Memory Report at c_bands before calling an iterative solver
          1677 MiB given to the printing process from OS
          1447 MiB allocation reported by mallinfo(arena+hblkhd)
        318608 MiB available memory on the node where the printing process lives
------------------
     ethr =  3.02E-09,  avg # of iterations =  1.0

     negative rho (up, down):  1.243E-02 1.243E-02

     total cpu time spent up to now is    13227.6 secs

     total energy              =   -1236.04074693 Ry
     estimated scf accuracy    <       0.00000812 Ry

     total magnetization       =    -0.00 Bohr mag/cell
     absolute magnetization    =     0.00 Bohr mag/cell

     iteration #274     ecut=    50.00 Ry     beta= 0.01
     Davidson diagonalization with overlap

---- Real-time Memory Report at c_bands before calling an iterative solver
          1677 MiB given to the printing process from OS
          1447 MiB allocation reported by mallinfo(arena+hblkhd)
        318468 MiB available memory on the node where the printing process lives
------------------
     ethr =  3.02E-09,  avg # of iterations =  1.0

     negative rho (up, down):  1.256E-02 1.256E-02

     total cpu time spent up to now is    13271.1 secs

     total energy              =   -1236.04074302 Ry
     estimated scf accuracy    <       0.00000800 Ry

     total magnetization       =    -0.00 Bohr mag/cell
     absolute magnetization    =     0.00 Bohr mag/cell

     iteration #275     ecut=    50.00 Ry     beta= 0.01
     Davidson diagonalization with overlap

---- Real-time Memory Report at c_bands before calling an iterative solver
          1677 MiB given to the printing process from OS
          1447 MiB allocation reported by mallinfo(arena+hblkhd)
        317781 MiB available memory on the node where the printing process lives
------------------
     ethr =  3.02E-09,  avg # of iterations =  1.0

     negative rho (up, down):  1.254E-02 1.254E-02

     total cpu time spent up to now is    13314.6 secs

     total energy              =   -1236.04074375 Ry
     estimated scf accuracy    <       0.00000709 Ry

     total magnetization       =    -0.00 Bohr mag/cell
     absolute magnetization    =     0.00 Bohr mag/cell

     iteration #276     ecut=    50.00 Ry     beta= 0.01
     Davidson diagonalization with overlap

---- Real-time Memory Report at c_bands before calling an iterative solver
          1677 MiB given to the printing process from OS
          1447 MiB allocation reported by mallinfo(arena+hblkhd)
        317995 MiB available memory on the node where the printing process lives
------------------
     ethr =  2.86E-09,  avg # of iterations =  1.0

     negative rho (up, down):  1.240E-02 1.240E-02

     total cpu time spent up to now is    13358.5 secs

     total energy              =   -1236.04074680 Ry
     estimated scf accuracy    <       0.00000705 Ry

     total magnetization       =     0.00 Bohr mag/cell
     absolute magnetization    =     0.00 Bohr mag/cell

     iteration #277     ecut=    50.00 Ry     beta= 0.01
     Davidson diagonalization with overlap

---- Real-time Memory Report at c_bands before calling an iterative solver
          1677 MiB given to the printing process from OS
          1447 MiB allocation reported by mallinfo(arena+hblkhd)
        317992 MiB available memory on the node where the printing process lives
------------------
     ethr =  2.84E-09,  avg # of iterations =  1.0

     negative rho (up, down):  1.270E-02 1.270E-02

     total cpu time spent up to now is    13402.1 secs

     total energy              =   -1236.04074646 Ry
     estimated scf accuracy    <       0.00000721 Ry

     total magnetization       =    -0.00 Bohr mag/cell
     absolute magnetization    =     0.00 Bohr mag/cell

     iteration #278     ecut=    50.00 Ry     beta= 0.01
     Davidson diagonalization with overlap

---- Real-time Memory Report at c_bands before calling an iterative solver
          1677 MiB given to the printing process from OS
          1447 MiB allocation reported by mallinfo(arena+hblkhd)
        317843 MiB available memory on the node where the printing process lives
------------------
     ethr =  2.84E-09,  avg # of iterations =  1.0

     negative rho (up, down):  1.216E-02 1.216E-02

     total cpu time spent up to now is    13445.7 secs

     total energy              =   -1236.04075207 Ry
     estimated scf accuracy    <       0.00000722 Ry

     total magnetization       =     0.00 Bohr mag/cell
     absolute magnetization    =     0.00 Bohr mag/cell

     iteration #279     ecut=    50.00 Ry     beta= 0.01
     Davidson diagonalization with overlap

---- Real-time Memory Report at c_bands before calling an iterative solver
          1677 MiB given to the printing process from OS
          1447 MiB allocation reported by mallinfo(arena+hblkhd)
        317952 MiB available memory on the node where the printing process lives
------------------
     ethr =  2.84E-09,  avg # of iterations =  1.0

     negative rho (up, down):  1.249E-02 1.249E-02

     total cpu time spent up to now is    13489.8 secs

     total energy              =   -1236.04074497 Ry
     estimated scf accuracy    <       0.00000755 Ry

     total magnetization       =    -0.00 Bohr mag/cell
     absolute magnetization    =     0.00 Bohr mag/cell

     iteration #280     ecut=    50.00 Ry     beta= 0.01
     Davidson diagonalization with overlap

---- Real-time Memory Report at c_bands before calling an iterative solver
          1677 MiB given to the printing process from OS
          1447 MiB allocation reported by mallinfo(arena+hblkhd)
        317921 MiB available memory on the node where the printing process lives
------------------
     ethr =  2.84E-09,  avg # of iterations =  1.0

     negative rho (up, down):  1.245E-02 1.245E-02

     total cpu time spent up to now is    13533.5 secs

     total energy              =   -1236.04074349 Ry
     estimated scf accuracy    <       0.00000672 Ry

     total magnetization       =     0.00 Bohr mag/cell
     absolute magnetization    =     0.00 Bohr mag/cell

     iteration #281     ecut=    50.00 Ry     beta= 0.01
     Davidson diagonalization with overlap

---- Real-time Memory Report at c_bands before calling an iterative solver
          1677 MiB given to the printing process from OS
          1447 MiB allocation reported by mallinfo(arena+hblkhd)
        318047 MiB available memory on the node where the printing process lives
------------------
     ethr =  2.71E-09,  avg # of iterations =  1.0

     negative rho (up, down):  1.230E-02 1.230E-02

     total cpu time spent up to now is    13577.8 secs

     total energy              =   -1236.04074559 Ry
     estimated scf accuracy    <       0.00000661 Ry

     total magnetization       =    -0.00 Bohr mag/cell
     absolute magnetization    =     0.00 Bohr mag/cell

     iteration #282     ecut=    50.00 Ry     beta= 0.01
     Davidson diagonalization with overlap

---- Real-time Memory Report at c_bands before calling an iterative solver
          1677 MiB given to the printing process from OS
          1447 MiB allocation reported by mallinfo(arena+hblkhd)
        317907 MiB available memory on the node where the printing process lives
------------------
     ethr =  2.67E-09,  avg # of iterations =  1.0

     negative rho (up, down):  1.203E-02 1.203E-02

     total cpu time spent up to now is    13621.8 secs

     total energy              =   -1236.04074779 Ry
     estimated scf accuracy    <       0.00000653 Ry

     total magnetization       =    -0.00 Bohr mag/cell
     absolute magnetization    =     0.00 Bohr mag/cell

     iteration #283     ecut=    50.00 Ry     beta= 0.01
     Davidson diagonalization with overlap

---- Real-time Memory Report at c_bands before calling an iterative solver
          1677 MiB given to the printing process from OS
          1447 MiB allocation reported by mallinfo(arena+hblkhd)
        317899 MiB available memory on the node where the printing process lives
------------------
     ethr =  2.63E-09,  avg # of iterations =  1.0

     negative rho (up, down):  1.190E-02 1.190E-02

     total cpu time spent up to now is    13665.4 secs

     total energy              =   -1236.04074793 Ry
     estimated scf accuracy    <       0.00000640 Ry

     total magnetization       =     0.00 Bohr mag/cell
     absolute magnetization    =     0.00 Bohr mag/cell

     iteration #284     ecut=    50.00 Ry     beta= 0.01
     Davidson diagonalization with overlap

---- Real-time Memory Report at c_bands before calling an iterative solver
          1677 MiB given to the printing process from OS
          1447 MiB allocation reported by mallinfo(arena+hblkhd)
        318102 MiB available memory on the node where the printing process lives
------------------
     ethr =  2.58E-09,  avg # of iterations =  1.0

     negative rho (up, down):  1.170E-02 1.170E-02

     total cpu time spent up to now is    13708.9 secs

     total energy              =   -1236.04075771 Ry
     estimated scf accuracy    <       0.00000669 Ry

     total magnetization       =    -0.00 Bohr mag/cell
     absolute magnetization    =     0.00 Bohr mag/cell

     iteration #285     ecut=    50.00 Ry     beta= 0.01
     Davidson diagonalization with overlap

---- Real-time Memory Report at c_bands before calling an iterative solver
          1677 MiB given to the printing process from OS
          1447 MiB allocation reported by mallinfo(arena+hblkhd)
        317888 MiB available memory on the node where the printing process lives
------------------
     ethr =  2.58E-09,  avg # of iterations =  1.0

     negative rho (up, down):  1.175E-02 1.175E-02

     total cpu time spent up to now is    13752.3 secs

     total energy              =   -1236.04075972 Ry
     estimated scf accuracy    <       0.00000695 Ry

     total magnetization       =    -0.00 Bohr mag/cell
     absolute magnetization    =     0.00 Bohr mag/cell

     iteration #286     ecut=    50.00 Ry     beta= 0.01
     Davidson diagonalization with overlap

---- Real-time Memory Report at c_bands before calling an iterative solver
          1677 MiB given to the printing process from OS
          1447 MiB allocation reported by mallinfo(arena+hblkhd)
        318113 MiB available memory on the node where the printing process lives
------------------
     ethr =  2.58E-09,  avg # of iterations =  1.0

     negative rho (up, down):  1.189E-02 1.189E-02

     total cpu time spent up to now is    13796.3 secs

     total energy              =   -1236.04075937 Ry
     estimated scf accuracy    <       0.00000659 Ry

     total magnetization       =     0.00 Bohr mag/cell
     absolute magnetization    =     0.00 Bohr mag/cell

     iteration #287     ecut=    50.00 Ry     beta= 0.01
     Davidson diagonalization with overlap

---- Real-time Memory Report at c_bands before calling an iterative solver
          1677 MiB given to the printing process from OS
          1447 MiB allocation reported by mallinfo(arena+hblkhd)
        318082 MiB available memory on the node where the printing process lives
------------------
     ethr =  2.58E-09,  avg # of iterations =  1.0

     negative rho (up, down):  1.159E-02 1.159E-02

     total cpu time spent up to now is    13840.0 secs

     total energy              =   -1236.04076051 Ry
     estimated scf accuracy    <       0.00000682 Ry

     total magnetization       =    -0.00 Bohr mag/cell
     absolute magnetization    =     0.00 Bohr mag/cell

     iteration #288     ecut=    50.00 Ry     beta= 0.01
     Davidson diagonalization with overlap

---- Real-time Memory Report at c_bands before calling an iterative solver
          1677 MiB given to the printing process from OS
          1447 MiB allocation reported by mallinfo(arena+hblkhd)
        317769 MiB available memory on the node where the printing process lives
------------------
     ethr =  2.58E-09,  avg # of iterations =  1.0

     negative rho (up, down):  1.156E-02 1.156E-02

     total cpu time spent up to now is    13883.3 secs

     total energy              =   -1236.04076029 Ry
     estimated scf accuracy    <       0.00000664 Ry

     total magnetization       =     0.00 Bohr mag/cell
     absolute magnetization    =     0.00 Bohr mag/cell

     iteration #289     ecut=    50.00 Ry     beta= 0.01
     Davidson diagonalization with overlap

---- Real-time Memory Report at c_bands before calling an iterative solver
          1677 MiB given to the printing process from OS
          1447 MiB allocation reported by mallinfo(arena+hblkhd)
        318091 MiB available memory on the node where the printing process lives
------------------
     ethr =  2.58E-09,  avg # of iterations =  1.0

     negative rho (up, down):  1.175E-02 1.175E-02

     total cpu time spent up to now is    13926.8 secs

     total energy              =   -1236.04075925 Ry
     estimated scf accuracy    <       0.00000664 Ry

     total magnetization       =     0.00 Bohr mag/cell
     absolute magnetization    =     0.00 Bohr mag/cell

     iteration #290     ecut=    50.00 Ry     beta= 0.01
     Davidson diagonalization with overlap

---- Real-time Memory Report at c_bands before calling an iterative solver
          1677 MiB given to the printing process from OS
          1447 MiB allocation reported by mallinfo(arena+hblkhd)
        317888 MiB available memory on the node where the printing process lives
------------------
     ethr =  2.58E-09,  avg # of iterations =  1.0

     negative rho (up, down):  1.159E-02 1.159E-02

     total cpu time spent up to now is    13971.0 secs

     total energy              =   -1236.04075938 Ry
     estimated scf accuracy    <       0.00000631 Ry

     total magnetization       =    -0.00 Bohr mag/cell
     absolute magnetization    =     0.00 Bohr mag/cell

     iteration #291     ecut=    50.00 Ry     beta= 0.01
     Davidson diagonalization with overlap

---- Real-time Memory Report at c_bands before calling an iterative solver
          1677 MiB given to the printing process from OS
          1447 MiB allocation reported by mallinfo(arena+hblkhd)
        317847 MiB available memory on the node where the printing process lives
------------------
     ethr =  2.54E-09,  avg # of iterations =  1.0

     negative rho (up, down):  1.165E-02 1.165E-02

     total cpu time spent up to now is    14014.5 secs

     total energy              =   -1236.04075832 Ry
     estimated scf accuracy    <       0.00000686 Ry

     total magnetization       =     0.00 Bohr mag/cell
     absolute magnetization    =     0.00 Bohr mag/cell

     iteration #292     ecut=    50.00 Ry     beta= 0.01
     Davidson diagonalization with overlap

---- Real-time Memory Report at c_bands before calling an iterative solver
          1677 MiB given to the printing process from OS
          1447 MiB allocation reported by mallinfo(arena+hblkhd)
        318071 MiB available memory on the node where the printing process lives
------------------
     ethr =  2.54E-09,  avg # of iterations =  1.0

     negative rho (up, down):  1.169E-02 1.169E-02

     total cpu time spent up to now is    14058.4 secs

     total energy              =   -1236.04076054 Ry
     estimated scf accuracy    <       0.00000644 Ry

     total magnetization       =    -0.00 Bohr mag/cell
     absolute magnetization    =     0.00 Bohr mag/cell

     iteration #293     ecut=    50.00 Ry     beta= 0.01
     Davidson diagonalization with overlap

---- Real-time Memory Report at c_bands before calling an iterative solver
          1677 MiB given to the printing process from OS
          1447 MiB allocation reported by mallinfo(arena+hblkhd)
        318086 MiB available memory on the node where the printing process lives
------------------
     ethr =  2.54E-09,  avg # of iterations =  1.0

     negative rho (up, down):  1.161E-02 1.161E-02

     total cpu time spent up to now is    14102.5 secs

     total energy              =   -1236.04075927 Ry
     estimated scf accuracy    <       0.00000656 Ry

     total magnetization       =    -0.00 Bohr mag/cell
     absolute magnetization    =     0.00 Bohr mag/cell

     iteration #294     ecut=    50.00 Ry     beta= 0.01
     Davidson diagonalization with overlap

---- Real-time Memory Report at c_bands before calling an iterative solver
          1677 MiB given to the printing process from OS
          1447 MiB allocation reported by mallinfo(arena+hblkhd)
        318110 MiB available memory on the node where the printing process lives
------------------
     ethr =  2.54E-09,  avg # of iterations =  1.0

     negative rho (up, down):  1.121E-02 1.121E-02

     total cpu time spent up to now is    14146.0 secs

     total energy              =   -1236.04075782 Ry
     estimated scf accuracy    <       0.00000645 Ry

     total magnetization       =     0.00 Bohr mag/cell
     absolute magnetization    =     0.00 Bohr mag/cell

     iteration #295     ecut=    50.00 Ry     beta= 0.01
     Davidson diagonalization with overlap

---- Real-time Memory Report at c_bands before calling an iterative solver
          1677 MiB given to the printing process from OS
          1447 MiB allocation reported by mallinfo(arena+hblkhd)
        317853 MiB available memory on the node where the printing process lives
------------------
     ethr =  2.54E-09,  avg # of iterations =  1.0

     negative rho (up, down):  1.169E-02 1.169E-02

     total cpu time spent up to now is    14190.0 secs

     total energy              =   -1236.04075588 Ry
     estimated scf accuracy    <       0.00000649 Ry

     total magnetization       =     0.00 Bohr mag/cell
     absolute magnetization    =     0.00 Bohr mag/cell

     iteration #296     ecut=    50.00 Ry     beta= 0.01
     Davidson diagonalization with overlap

---- Real-time Memory Report at c_bands before calling an iterative solver
          1677 MiB given to the printing process from OS
          1447 MiB allocation reported by mallinfo(arena+hblkhd)
        317863 MiB available memory on the node where the printing process lives
------------------
     ethr =  2.54E-09,  avg # of iterations =  1.0

     negative rho (up, down):  1.163E-02 1.163E-02

     total cpu time spent up to now is    14234.2 secs

     total energy              =   -1236.04075501 Ry
     estimated scf accuracy    <       0.00000625 Ry

     total magnetization       =     0.00 Bohr mag/cell
     absolute magnetization    =     0.00 Bohr mag/cell

     iteration #297     ecut=    50.00 Ry     beta= 0.01
     Davidson diagonalization with overlap

---- Real-time Memory Report at c_bands before calling an iterative solver
          1677 MiB given to the printing process from OS
          1447 MiB allocation reported by mallinfo(arena+hblkhd)
        317689 MiB available memory on the node where the printing process lives
------------------
     ethr =  2.52E-09,  avg # of iterations =  1.0

     negative rho (up, down):  1.160E-02 1.160E-02

     total cpu time spent up to now is    14278.0 secs

     total energy              =   -1236.04075620 Ry
     estimated scf accuracy    <       0.00000569 Ry

     total magnetization       =    -0.00 Bohr mag/cell
     absolute magnetization    =     0.00 Bohr mag/cell

     iteration #298     ecut=    50.00 Ry     beta= 0.01
     Davidson diagonalization with overlap

---- Real-time Memory Report at c_bands before calling an iterative solver
          1677 MiB given to the printing process from OS
          1447 MiB allocation reported by mallinfo(arena+hblkhd)
        317663 MiB available memory on the node where the printing process lives
------------------
     ethr =  2.29E-09,  avg # of iterations =  1.0

     negative rho (up, down):  1.148E-02 1.148E-02

     total cpu time spent up to now is    14321.8 secs

     total energy              =   -1236.04075976 Ry
     estimated scf accuracy    <       0.00000561 Ry

     total magnetization       =     0.00 Bohr mag/cell
     absolute magnetization    =     0.00 Bohr mag/cell

     iteration #299     ecut=    50.00 Ry     beta= 0.01
     Davidson diagonalization with overlap

---- Real-time Memory Report at c_bands before calling an iterative solver
          1677 MiB given to the printing process from OS
          1447 MiB allocation reported by mallinfo(arena+hblkhd)
        317796 MiB available memory on the node where the printing process lives
------------------
     ethr =  2.26E-09,  avg # of iterations =  1.0

     negative rho (up, down):  1.137E-02 1.137E-02

     total cpu time spent up to now is    14365.5 secs

     total energy              =   -1236.04076241 Ry
     estimated scf accuracy    <       0.00000550 Ry

     total magnetization       =    -0.00 Bohr mag/cell
     absolute magnetization    =     0.00 Bohr mag/cell

     iteration #300     ecut=    50.00 Ry     beta= 0.01
     Davidson diagonalization with overlap

---- Real-time Memory Report at c_bands before calling an iterative solver
          1677 MiB given to the printing process from OS
          1447 MiB allocation reported by mallinfo(arena+hblkhd)
        317956 MiB available memory on the node where the printing process lives
------------------
     ethr =  2.22E-09,  avg # of iterations =  1.0

     negative rho (up, down):  1.153E-02 1.153E-02

     total cpu time spent up to now is    14409.1 secs

     total energy              =   -1236.04075782 Ry
     estimated scf accuracy    <       0.00000553 Ry

     total magnetization       =    -0.00 Bohr mag/cell
     absolute magnetization    =     0.00 Bohr mag/cell

     iteration #301     ecut=    50.00 Ry     beta= 0.01
     Davidson diagonalization with overlap

---- Real-time Memory Report at c_bands before calling an iterative solver
          1677 MiB given to the printing process from OS
          1447 MiB allocation reported by mallinfo(arena+hblkhd)
        317738 MiB available memory on the node where the printing process lives
------------------
     ethr =  2.22E-09,  avg # of iterations =  1.0

     negative rho (up, down):  1.135E-02 1.135E-02

     total cpu time spent up to now is    14453.0 secs

     total energy              =   -1236.04076185 Ry
     estimated scf accuracy    <       0.00000560 Ry

     total magnetization       =     0.00 Bohr mag/cell
     absolute magnetization    =     0.00 Bohr mag/cell

     iteration #302     ecut=    50.00 Ry     beta= 0.01
     Davidson diagonalization with overlap

---- Real-time Memory Report at c_bands before calling an iterative solver
          1677 MiB given to the printing process from OS
          1447 MiB allocation reported by mallinfo(arena+hblkhd)
        317754 MiB available memory on the node where the printing process lives
------------------
     ethr =  2.22E-09,  avg # of iterations =  1.0

     negative rho (up, down):  1.141E-02 1.141E-02

     total cpu time spent up to now is    14496.9 secs

     total energy              =   -1236.04076219 Ry
     estimated scf accuracy    <       0.00000561 Ry

     total magnetization       =     0.00 Bohr mag/cell
     absolute magnetization    =     0.00 Bohr mag/cell

     iteration #303     ecut=    50.00 Ry     beta= 0.01
     Davidson diagonalization with overlap

---- Real-time Memory Report at c_bands before calling an iterative solver
          1677 MiB given to the printing process from OS
          1447 MiB allocation reported by mallinfo(arena+hblkhd)
        317769 MiB available memory on the node where the printing process lives
------------------
     ethr =  2.22E-09,  avg # of iterations =  1.0

     negative rho (up, down):  1.120E-02 1.120E-02

     total cpu time spent up to now is    14540.4 secs

     total energy              =   -1236.04076291 Ry
     estimated scf accuracy    <       0.00000558 Ry

     total magnetization       =    -0.00 Bohr mag/cell
     absolute magnetization    =     0.00 Bohr mag/cell

     iteration #304     ecut=    50.00 Ry     beta= 0.01
     Davidson diagonalization with overlap

---- Real-time Memory Report at c_bands before calling an iterative solver
          1677 MiB given to the printing process from OS
          1447 MiB allocation reported by mallinfo(arena+hblkhd)
        317982 MiB available memory on the node where the printing process lives
------------------
     ethr =  2.22E-09,  avg # of iterations =  1.0

     negative rho (up, down):  1.112E-02 1.112E-02

     total cpu time spent up to now is    14583.8 secs

     total energy              =   -1236.04076282 Ry
     estimated scf accuracy    <       0.00000565 Ry

     total magnetization       =    -0.00 Bohr mag/cell
     absolute magnetization    =     0.00 Bohr mag/cell

     iteration #305     ecut=    50.00 Ry     beta= 0.01
     Davidson diagonalization with overlap

---- Real-time Memory Report at c_bands before calling an iterative solver
          1677 MiB given to the printing process from OS
          1447 MiB allocation reported by mallinfo(arena+hblkhd)
        317855 MiB available memory on the node where the printing process lives
------------------
     ethr =  2.22E-09,  avg # of iterations =  1.0

     negative rho (up, down):  1.127E-02 1.127E-02

     total cpu time spent up to now is    14627.8 secs

     total energy              =   -1236.04076206 Ry
     estimated scf accuracy    <       0.00000566 Ry

     total magnetization       =    -0.00 Bohr mag/cell
     absolute magnetization    =     0.00 Bohr mag/cell

     iteration #306     ecut=    50.00 Ry     beta= 0.01
     Davidson diagonalization with overlap

---- Real-time Memory Report at c_bands before calling an iterative solver
          1677 MiB given to the printing process from OS
          1447 MiB allocation reported by mallinfo(arena+hblkhd)
        317827 MiB available memory on the node where the printing process lives
------------------
     ethr =  2.22E-09,  avg # of iterations =  1.0

     negative rho (up, down):  1.111E-02 1.111E-02

     total cpu time spent up to now is    14671.4 secs

     total energy              =   -1236.04076698 Ry
     estimated scf accuracy    <       0.00000571 Ry

     total magnetization       =    -0.00 Bohr mag/cell
     absolute magnetization    =     0.00 Bohr mag/cell

     iteration #307     ecut=    50.00 Ry     beta= 0.01
     Davidson diagonalization with overlap

---- Real-time Memory Report at c_bands before calling an iterative solver
          1677 MiB given to the printing process from OS
          1447 MiB allocation reported by mallinfo(arena+hblkhd)
        317982 MiB available memory on the node where the printing process lives
------------------
     ethr =  2.22E-09,  avg # of iterations =  1.0

     negative rho (up, down):  1.100E-02 1.100E-02

     total cpu time spent up to now is    14715.1 secs

     total energy              =   -1236.04076647 Ry
     estimated scf accuracy    <       0.00000614 Ry

     total magnetization       =     0.00 Bohr mag/cell
     absolute magnetization    =     0.00 Bohr mag/cell

     iteration #308     ecut=    50.00 Ry     beta= 0.01
     Davidson diagonalization with overlap

---- Real-time Memory Report at c_bands before calling an iterative solver
          1677 MiB given to the printing process from OS
          1447 MiB allocation reported by mallinfo(arena+hblkhd)
        317784 MiB available memory on the node where the printing process lives
------------------
     ethr =  2.22E-09,  avg # of iterations =  1.0

     negative rho (up, down):  1.102E-02 1.102E-02

     total cpu time spent up to now is    14759.0 secs

     total energy              =   -1236.04076808 Ry
     estimated scf accuracy    <       0.00000650 Ry

     total magnetization       =     0.00 Bohr mag/cell
     absolute magnetization    =     0.00 Bohr mag/cell

     iteration #309     ecut=    50.00 Ry     beta= 0.01
     Davidson diagonalization with overlap

---- Real-time Memory Report at c_bands before calling an iterative solver
          1677 MiB given to the printing process from OS
          1447 MiB allocation reported by mallinfo(arena+hblkhd)
        317751 MiB available memory on the node where the printing process lives
------------------
     ethr =  2.22E-09,  avg # of iterations =  1.0

     negative rho (up, down):  1.107E-02 1.107E-02

     total cpu time spent up to now is    14802.7 secs

     total energy              =   -1236.04076748 Ry
     estimated scf accuracy    <       0.00000667 Ry

     total magnetization       =     0.00 Bohr mag/cell
     absolute magnetization    =     0.00 Bohr mag/cell

     iteration #310     ecut=    50.00 Ry     beta= 0.01
     Davidson diagonalization with overlap

---- Real-time Memory Report at c_bands before calling an iterative solver
          1677 MiB given to the printing process from OS
          1447 MiB allocation reported by mallinfo(arena+hblkhd)
        317883 MiB available memory on the node where the printing process lives
------------------
     ethr =  2.22E-09,  avg # of iterations =  1.0

     negative rho (up, down):  1.110E-02 1.110E-02

     total cpu time spent up to now is    14846.4 secs

     total energy              =   -1236.04077117 Ry
     estimated scf accuracy    <       0.00000742 Ry

     total magnetization       =     0.00 Bohr mag/cell
     absolute magnetization    =     0.00 Bohr mag/cell

     iteration #311     ecut=    50.00 Ry     beta= 0.01
     Davidson diagonalization with overlap

---- Real-time Memory Report at c_bands before calling an iterative solver
          1677 MiB given to the printing process from OS
          1447 MiB allocation reported by mallinfo(arena+hblkhd)
        318042 MiB available memory on the node where the printing process lives
------------------
     ethr =  2.22E-09,  avg # of iterations =  1.0

     negative rho (up, down):  1.126E-02 1.126E-02

     total cpu time spent up to now is    14890.4 secs

     total energy              =   -1236.04076517 Ry
     estimated scf accuracy    <       0.00000646 Ry

     total magnetization       =    -0.00 Bohr mag/cell
     absolute magnetization    =     0.00 Bohr mag/cell

     iteration #312     ecut=    50.00 Ry     beta= 0.01
     Davidson diagonalization with overlap

---- Real-time Memory Report at c_bands before calling an iterative solver
          1677 MiB given to the printing process from OS
          1447 MiB allocation reported by mallinfo(arena+hblkhd)
        318054 MiB available memory on the node where the printing process lives
------------------
     ethr =  2.22E-09,  avg # of iterations =  1.0

     negative rho (up, down):  1.127E-02 1.127E-02

     total cpu time spent up to now is    14934.0 secs

     total energy              =   -1236.04076983 Ry
     estimated scf accuracy    <       0.00000607 Ry

     total magnetization       =     0.00 Bohr mag/cell
     absolute magnetization    =     0.00 Bohr mag/cell

     iteration #313     ecut=    50.00 Ry     beta= 0.01
     Davidson diagonalization with overlap

---- Real-time Memory Report at c_bands before calling an iterative solver
          1677 MiB given to the printing process from OS
          1447 MiB allocation reported by mallinfo(arena+hblkhd)
        317650 MiB available memory on the node where the printing process lives
------------------
     ethr =  2.22E-09,  avg # of iterations =  1.0

     negative rho (up, down):  1.125E-02 1.125E-02

     total cpu time spent up to now is    14977.5 secs

     total energy              =   -1236.04076964 Ry
     estimated scf accuracy    <       0.00000570 Ry

     total magnetization       =     0.00 Bohr mag/cell
     absolute magnetization    =     0.00 Bohr mag/cell

     iteration #314     ecut=    50.00 Ry     beta= 0.01
     Davidson diagonalization with overlap

---- Real-time Memory Report at c_bands before calling an iterative solver
          1677 MiB given to the printing process from OS
          1447 MiB allocation reported by mallinfo(arena+hblkhd)
        318006 MiB available memory on the node where the printing process lives
------------------
     ethr =  2.22E-09,  avg # of iterations =  1.0

     negative rho (up, down):  1.127E-02 1.127E-02

     total cpu time spent up to now is    15021.3 secs

     total energy              =   -1236.04077052 Ry
     estimated scf accuracy    <       0.00000636 Ry

     total magnetization       =    -0.00 Bohr mag/cell
     absolute magnetization    =     0.00 Bohr mag/cell

     iteration #315     ecut=    50.00 Ry     beta= 0.01
     Davidson diagonalization with overlap

---- Real-time Memory Report at c_bands before calling an iterative solver
          1677 MiB given to the printing process from OS
          1447 MiB allocation reported by mallinfo(arena+hblkhd)
        317996 MiB available memory on the node where the printing process lives
------------------
     ethr =  2.22E-09,  avg # of iterations =  1.0

     negative rho (up, down):  1.090E-02 1.090E-02

     total cpu time spent up to now is    15065.2 secs

     total energy              =   -1236.04076424 Ry
     estimated scf accuracy    <       0.00000639 Ry

     total magnetization       =    -0.00 Bohr mag/cell
     absolute magnetization    =     0.00 Bohr mag/cell

     iteration #316     ecut=    50.00 Ry     beta= 0.01
     Davidson diagonalization with overlap

---- Real-time Memory Report at c_bands before calling an iterative solver
          1677 MiB given to the printing process from OS
          1447 MiB allocation reported by mallinfo(arena+hblkhd)
        317754 MiB available memory on the node where the printing process lives
------------------
     ethr =  2.22E-09,  avg # of iterations =  1.0

     negative rho (up, down):  9.988E-03 9.988E-03

     total cpu time spent up to now is    15108.9 secs

     total energy              =   -1236.04075587 Ry
     estimated scf accuracy    <       0.00000592 Ry

     total magnetization       =     0.00 Bohr mag/cell
     absolute magnetization    =     0.00 Bohr mag/cell

     iteration #317     ecut=    50.00 Ry     beta= 0.01
     Davidson diagonalization with overlap

---- Real-time Memory Report at c_bands before calling an iterative solver
          1677 MiB given to the printing process from OS
          1447 MiB allocation reported by mallinfo(arena+hblkhd)
        243806 MiB available memory on the node where the printing process lives
------------------
     ethr =  2.22E-09,  avg # of iterations =  2.0

     negative rho (up, down):  9.682E-03 9.682E-03

     total cpu time spent up to now is    15156.8 secs

     total energy              =   -1236.04075980 Ry
     estimated scf accuracy    <       0.00000419 Ry

     total magnetization       =     0.00 Bohr mag/cell
     absolute magnetization    =     0.00 Bohr mag/cell

     iteration #318     ecut=    50.00 Ry     beta= 0.01
     Davidson diagonalization with overlap

---- Real-time Memory Report at c_bands before calling an iterative solver
          1677 MiB given to the printing process from OS
          1447 MiB allocation reported by mallinfo(arena+hblkhd)
        239646 MiB available memory on the node where the printing process lives
------------------
     ethr =  1.69E-09,  avg # of iterations =  1.5

     negative rho (up, down):  9.660E-03 9.661E-03

     total cpu time spent up to now is    15203.5 secs

     total energy              =   -1236.04076042 Ry
     estimated scf accuracy    <       0.00000533 Ry

     total magnetization       =    -0.00 Bohr mag/cell
     absolute magnetization    =     0.00 Bohr mag/cell

     iteration #319     ecut=    50.00 Ry     beta= 0.01
     Davidson diagonalization with overlap

---- Real-time Memory Report at c_bands before calling an iterative solver
          1677 MiB given to the printing process from OS
          1447 MiB allocation reported by mallinfo(arena+hblkhd)
        234158 MiB available memory on the node where the printing process lives
------------------
     ethr =  1.69E-09,  avg # of iterations =  1.0

     negative rho (up, down):  9.836E-03 9.836E-03

     total cpu time spent up to now is    15246.9 secs

     total energy              =   -1236.04075777 Ry
     estimated scf accuracy    <       0.00000485 Ry

     total magnetization       =    -0.00 Bohr mag/cell
     absolute magnetization    =     0.00 Bohr mag/cell

     iteration #320     ecut=    50.00 Ry     beta= 0.01
     Davidson diagonalization with overlap

---- Real-time Memory Report at c_bands before calling an iterative solver
          1677 MiB given to the printing process from OS
          1447 MiB allocation reported by mallinfo(arena+hblkhd)
        280662 MiB available memory on the node where the printing process lives
------------------
     ethr =  1.69E-09,  avg # of iterations =  1.0

     negative rho (up, down):  9.981E-03 9.981E-03

     total cpu time spent up to now is    15290.4 secs

     total energy              =   -1236.04075453 Ry
     estimated scf accuracy    <       0.00000447 Ry

     total magnetization       =    -0.00 Bohr mag/cell
     absolute magnetization    =     0.00 Bohr mag/cell

     iteration #321     ecut=    50.00 Ry     beta= 0.01
     Davidson diagonalization with overlap

---- Real-time Memory Report at c_bands before calling an iterative solver
          1677 MiB given to the printing process from OS
          1447 MiB allocation reported by mallinfo(arena+hblkhd)
        280905 MiB available memory on the node where the printing process lives
------------------
     ethr =  1.69E-09,  avg # of iterations =  1.0

     negative rho (up, down):  9.612E-03 9.612E-03

     total cpu time spent up to now is    15333.8 secs

     total energy              =   -1236.04075925 Ry
     estimated scf accuracy    <       0.00000446 Ry

     total magnetization       =     0.00 Bohr mag/cell
     absolute magnetization    =     0.00 Bohr mag/cell

     iteration #322     ecut=    50.00 Ry     beta= 0.01
     Davidson diagonalization with overlap

---- Real-time Memory Report at c_bands before calling an iterative solver
          1677 MiB given to the printing process from OS
          1447 MiB allocation reported by mallinfo(arena+hblkhd)
        277735 MiB available memory on the node where the printing process lives
------------------
     ethr =  1.69E-09,  avg # of iterations =  1.5

     negative rho (up, down):  1.015E-02 1.015E-02

     total cpu time spent up to now is    15379.8 secs

     total energy              =   -1236.04075558 Ry
     estimated scf accuracy    <       0.00000609 Ry

     total magnetization       =    -0.00 Bohr mag/cell
     absolute magnetization    =     0.00 Bohr mag/cell

     iteration #323     ecut=    50.00 Ry     beta= 0.01
     Davidson diagonalization with overlap

---- Real-time Memory Report at c_bands before calling an iterative solver
          1677 MiB given to the printing process from OS
          1447 MiB allocation reported by mallinfo(arena+hblkhd)
        265925 MiB available memory on the node where the printing process lives
------------------
     ethr =  1.69E-09,  avg # of iterations =  1.0

     negative rho (up, down):  1.014E-02 1.014E-02

     total cpu time spent up to now is    15423.5 secs

     total energy              =   -1236.04075632 Ry
     estimated scf accuracy    <       0.00000476 Ry

     total magnetization       =     0.00 Bohr mag/cell
     absolute magnetization    =     0.00 Bohr mag/cell

     iteration #324     ecut=    50.00 Ry     beta= 0.01
     Davidson diagonalization with overlap

---- Real-time Memory Report at c_bands before calling an iterative solver
          1677 MiB given to the printing process from OS
          1447 MiB allocation reported by mallinfo(arena+hblkhd)
        264725 MiB available memory on the node where the printing process lives
------------------
     ethr =  1.69E-09,  avg # of iterations =  1.0

     negative rho (up, down):  1.012E-02 1.012E-02

     total cpu time spent up to now is    15467.2 secs

     total energy              =   -1236.04075858 Ry
     estimated scf accuracy    <       0.00000453 Ry

     total magnetization       =    -0.00 Bohr mag/cell
     absolute magnetization    =     0.00 Bohr mag/cell

     iteration #325     ecut=    50.00 Ry     beta= 0.01
     Davidson diagonalization with overlap

---- Real-time Memory Report at c_bands before calling an iterative solver
          1677 MiB given to the printing process from OS
          1447 MiB allocation reported by mallinfo(arena+hblkhd)
        248801 MiB available memory on the node where the printing process lives
------------------
     ethr =  1.69E-09,  avg # of iterations =  1.0

     negative rho (up, down):  1.019E-02 1.019E-02

     total cpu time spent up to now is    15510.7 secs

     total energy              =   -1236.04076177 Ry
     estimated scf accuracy    <       0.00000413 Ry

     total magnetization       =    -0.00 Bohr mag/cell
     absolute magnetization    =     0.00 Bohr mag/cell

     iteration #326     ecut=    50.00 Ry     beta= 0.01
     Davidson diagonalization with overlap

---- Real-time Memory Report at c_bands before calling an iterative solver
          1677 MiB given to the printing process from OS
          1447 MiB allocation reported by mallinfo(arena+hblkhd)
        248950 MiB available memory on the node where the printing process lives
------------------
     ethr =  1.67E-09,  avg # of iterations =  1.0

     negative rho (up, down):  1.031E-02 1.031E-02

     total cpu time spent up to now is    15554.5 secs

     total energy              =   -1236.04076399 Ry
     estimated scf accuracy    <       0.00000384 Ry

     total magnetization       =    -0.00 Bohr mag/cell
     absolute magnetization    =     0.00 Bohr mag/cell

     iteration #327     ecut=    50.00 Ry     beta= 0.01
     Davidson diagonalization with overlap

---- Real-time Memory Report at c_bands before calling an iterative solver
          1677 MiB given to the printing process from OS
          1447 MiB allocation reported by mallinfo(arena+hblkhd)
        248985 MiB available memory on the node where the printing process lives
------------------
     ethr =  1.55E-09,  avg # of iterations =  1.0

     negative rho (up, down):  9.517E-03 9.518E-03

     total cpu time spent up to now is    15598.1 secs

     total energy              =   -1236.04077571 Ry
     estimated scf accuracy    <       0.00000363 Ry

     total magnetization       =     0.00 Bohr mag/cell
     absolute magnetization    =     0.00 Bohr mag/cell

     iteration #328     ecut=    50.00 Ry     beta= 0.01
     Davidson diagonalization with overlap

---- Real-time Memory Report at c_bands before calling an iterative solver
          1677 MiB given to the printing process from OS
          1447 MiB allocation reported by mallinfo(arena+hblkhd)
        248711 MiB available memory on the node where the printing process lives
------------------
     ethr =  1.46E-09,  avg # of iterations =  1.0

     negative rho (up, down):  8.957E-03 8.957E-03

     total cpu time spent up to now is    15641.8 secs

     total energy              =   -1236.04078751 Ry
     estimated scf accuracy    <       0.00000343 Ry

     total magnetization       =     0.00 Bohr mag/cell
     absolute magnetization    =     0.00 Bohr mag/cell

     iteration #329     ecut=    50.00 Ry     beta= 0.01
     Davidson diagonalization with overlap

---- Real-time Memory Report at c_bands before calling an iterative solver
          1677 MiB given to the printing process from OS
          1447 MiB allocation reported by mallinfo(arena+hblkhd)
        248382 MiB available memory on the node where the printing process lives
------------------
     ethr =  1.38E-09,  avg # of iterations =  1.0

     negative rho (up, down):  8.962E-03 8.962E-03

     total cpu time spent up to now is    15685.3 secs

     total energy              =   -1236.04078739 Ry
     estimated scf accuracy    <       0.00000295 Ry

     total magnetization       =    -0.00 Bohr mag/cell
     absolute magnetization    =     0.00 Bohr mag/cell

     iteration #330     ecut=    50.00 Ry     beta= 0.01
     Davidson diagonalization with overlap

---- Real-time Memory Report at c_bands before calling an iterative solver
          1677 MiB given to the printing process from OS
          1447 MiB allocation reported by mallinfo(arena+hblkhd)
        248779 MiB available memory on the node where the printing process lives
------------------
     ethr =  1.19E-09,  avg # of iterations =  1.0

     negative rho (up, down):  8.911E-03 8.911E-03

     total cpu time spent up to now is    15729.1 secs

     total energy              =   -1236.04078961 Ry
     estimated scf accuracy    <       0.00000285 Ry

     total magnetization       =     0.00 Bohr mag/cell
     absolute magnetization    =     0.00 Bohr mag/cell

     iteration #331     ecut=    50.00 Ry     beta= 0.01
     Davidson diagonalization with overlap

---- Real-time Memory Report at c_bands before calling an iterative solver
          1677 MiB given to the printing process from OS
          1447 MiB allocation reported by mallinfo(arena+hblkhd)
        249442 MiB available memory on the node where the printing process lives
------------------
     ethr =  1.15E-09,  avg # of iterations =  1.0

     negative rho (up, down):  9.072E-03 9.072E-03

     total cpu time spent up to now is    15773.3 secs

     total energy              =   -1236.04078939 Ry
     estimated scf accuracy    <       0.00000290 Ry

     total magnetization       =    -0.00 Bohr mag/cell
     absolute magnetization    =     0.00 Bohr mag/cell

     iteration #332     ecut=    50.00 Ry     beta= 0.01
     Davidson diagonalization with overlap

---- Real-time Memory Report at c_bands before calling an iterative solver
          1677 MiB given to the printing process from OS
          1447 MiB allocation reported by mallinfo(arena+hblkhd)
        248945 MiB available memory on the node where the printing process lives
------------------
     ethr =  1.15E-09,  avg # of iterations =  1.0

     negative rho (up, down):  9.144E-03 9.144E-03

     total cpu time spent up to now is    15817.1 secs

     total energy              =   -1236.04078980 Ry
     estimated scf accuracy    <       0.00000281 Ry

     total magnetization       =    -0.00 Bohr mag/cell
     absolute magnetization    =     0.00 Bohr mag/cell

     iteration #333     ecut=    50.00 Ry     beta= 0.01
     Davidson diagonalization with overlap

---- Real-time Memory Report at c_bands before calling an iterative solver
          1677 MiB given to the printing process from OS
          1447 MiB allocation reported by mallinfo(arena+hblkhd)
        248304 MiB available memory on the node where the printing process lives
------------------
     ethr =  1.13E-09,  avg # of iterations =  1.0

     negative rho (up, down):  9.155E-03 9.155E-03

     total cpu time spent up to now is    15861.1 secs

     total energy              =   -1236.04078694 Ry
     estimated scf accuracy    <       0.00000291 Ry

     total magnetization       =     0.00 Bohr mag/cell
     absolute magnetization    =     0.00 Bohr mag/cell

     iteration #334     ecut=    50.00 Ry     beta= 0.01
     Davidson diagonalization with overlap

---- Real-time Memory Report at c_bands before calling an iterative solver
          1677 MiB given to the printing process from OS
          1447 MiB allocation reported by mallinfo(arena+hblkhd)
        248456 MiB available memory on the node where the printing process lives
------------------
     ethr =  1.13E-09,  avg # of iterations =  1.0

     negative rho (up, down):  9.185E-03 9.185E-03

     total cpu time spent up to now is    15905.3 secs

     total energy              =   -1236.04079073 Ry
     estimated scf accuracy    <       0.00000296 Ry

     total magnetization       =     0.00 Bohr mag/cell
     absolute magnetization    =     0.00 Bohr mag/cell

     iteration #335     ecut=    50.00 Ry     beta= 0.01
     Davidson diagonalization with overlap

---- Real-time Memory Report at c_bands before calling an iterative solver
          1677 MiB given to the printing process from OS
          1447 MiB allocation reported by mallinfo(arena+hblkhd)
        248750 MiB available memory on the node where the printing process lives
------------------
     ethr =  1.13E-09,  avg # of iterations =  1.0

     negative rho (up, down):  9.103E-03 9.103E-03

     total cpu time spent up to now is    15948.8 secs

     total energy              =   -1236.04078460 Ry
     estimated scf accuracy    <       0.00000303 Ry

     total magnetization       =     0.00 Bohr mag/cell
     absolute magnetization    =     0.00 Bohr mag/cell

     iteration #336     ecut=    50.00 Ry     beta= 0.01
     Davidson diagonalization with overlap

---- Real-time Memory Report at c_bands before calling an iterative solver
          1677 MiB given to the printing process from OS
          1447 MiB allocation reported by mallinfo(arena+hblkhd)
        248523 MiB available memory on the node where the printing process lives
------------------
     ethr =  1.13E-09,  avg # of iterations =  1.0

     negative rho (up, down):  9.169E-03 9.169E-03

     total cpu time spent up to now is    15992.9 secs

     total energy              =   -1236.04078313 Ry
     estimated scf accuracy    <       0.00000306 Ry

     total magnetization       =     0.00 Bohr mag/cell
     absolute magnetization    =     0.00 Bohr mag/cell

     iteration #337     ecut=    50.00 Ry     beta= 0.01
     Davidson diagonalization with overlap

---- Real-time Memory Report at c_bands before calling an iterative solver
          1677 MiB given to the printing process from OS
          1447 MiB allocation reported by mallinfo(arena+hblkhd)
        248265 MiB available memory on the node where the printing process lives
------------------
     ethr =  1.13E-09,  avg # of iterations =  1.0

     negative rho (up, down):  9.149E-03 9.149E-03

     total cpu time spent up to now is    16036.9 secs

     total energy              =   -1236.04078393 Ry
     estimated scf accuracy    <       0.00000307 Ry

     total magnetization       =    -0.00 Bohr mag/cell
     absolute magnetization    =     0.00 Bohr mag/cell

     iteration #338     ecut=    50.00 Ry     beta= 0.01
     Davidson diagonalization with overlap

---- Real-time Memory Report at c_bands before calling an iterative solver
          1677 MiB given to the printing process from OS
          1447 MiB allocation reported by mallinfo(arena+hblkhd)
        248653 MiB available memory on the node where the printing process lives
------------------
     ethr =  1.13E-09,  avg # of iterations =  1.0

     negative rho (up, down):  9.053E-03 9.053E-03

     total cpu time spent up to now is    16080.5 secs

     total energy              =   -1236.04078221 Ry
     estimated scf accuracy    <       0.00000294 Ry

     total magnetization       =    -0.00 Bohr mag/cell
     absolute magnetization    =     0.00 Bohr mag/cell

     iteration #339     ecut=    50.00 Ry     beta= 0.01
     Davidson diagonalization with overlap

---- Real-time Memory Report at c_bands before calling an iterative solver
          1677 MiB given to the printing process from OS
          1447 MiB allocation reported by mallinfo(arena+hblkhd)
        248353 MiB available memory on the node where the printing process lives
------------------
     ethr =  1.13E-09,  avg # of iterations =  1.0

     negative rho (up, down):  9.065E-03 9.065E-03

     total cpu time spent up to now is    16125.0 secs

     total energy              =   -1236.04077866 Ry
     estimated scf accuracy    <       0.00000339 Ry

     total magnetization       =    -0.00 Bohr mag/cell
     absolute magnetization    =     0.00 Bohr mag/cell

     iteration #340     ecut=    50.00 Ry     beta= 0.01
     Davidson diagonalization with overlap

---- Real-time Memory Report at c_bands before calling an iterative solver
          1677 MiB given to the printing process from OS
          1447 MiB allocation reported by mallinfo(arena+hblkhd)
        248010 MiB available memory on the node where the printing process lives
------------------
     ethr =  1.13E-09,  avg # of iterations =  1.2

     negative rho (up, down):  9.147E-03 9.148E-03

     total cpu time spent up to now is    16169.8 secs

     total energy              =   -1236.04077755 Ry
     estimated scf accuracy    <       0.00000382 Ry

     total magnetization       =    -0.00 Bohr mag/cell
     absolute magnetization    =     0.00 Bohr mag/cell

     iteration #341     ecut=    50.00 Ry     beta= 0.01
     Davidson diagonalization with overlap

---- Real-time Memory Report at c_bands before calling an iterative solver
          1677 MiB given to the printing process from OS
          1447 MiB allocation reported by mallinfo(arena+hblkhd)
        248331 MiB available memory on the node where the printing process lives
------------------
     ethr =  1.13E-09,  avg # of iterations =  1.0

     negative rho (up, down):  9.022E-03 9.022E-03

     total cpu time spent up to now is    16213.3 secs

     total energy              =   -1236.04078063 Ry
     estimated scf accuracy    <       0.00000434 Ry

     total magnetization       =    -0.00 Bohr mag/cell
     absolute magnetization    =     0.00 Bohr mag/cell

     iteration #342     ecut=    50.00 Ry     beta= 0.01
     Davidson diagonalization with overlap

---- Real-time Memory Report at c_bands before calling an iterative solver
          1677 MiB given to the printing process from OS
          1447 MiB allocation reported by mallinfo(arena+hblkhd)
        248448 MiB available memory on the node where the printing process lives
------------------
     ethr =  1.13E-09,  avg # of iterations =  1.0

     negative rho (up, down):  9.011E-03 9.011E-03

     total cpu time spent up to now is    16256.9 secs

     total energy              =   -1236.04078079 Ry
     estimated scf accuracy    <       0.00000357 Ry

     total magnetization       =    -0.00 Bohr mag/cell
     absolute magnetization    =     0.00 Bohr mag/cell

     iteration #343     ecut=    50.00 Ry     beta= 0.01
     Davidson diagonalization with overlap

---- Real-time Memory Report at c_bands before calling an iterative solver
          1677 MiB given to the printing process from OS
          1447 MiB allocation reported by mallinfo(arena+hblkhd)
        248105 MiB available memory on the node where the printing process lives
------------------
     ethr =  1.13E-09,  avg # of iterations =  1.0

     negative rho (up, down):  8.720E-03 8.721E-03

     total cpu time spent up to now is    16301.0 secs

     total energy              =   -1236.04078129 Ry
     estimated scf accuracy    <       0.00000390 Ry

     total magnetization       =    -0.00 Bohr mag/cell
     absolute magnetization    =     0.00 Bohr mag/cell

     iteration #344     ecut=    50.00 Ry     beta= 0.01
     Davidson diagonalization with overlap

---- Real-time Memory Report at c_bands before calling an iterative solver
          1677 MiB given to the printing process from OS
          1447 MiB allocation reported by mallinfo(arena+hblkhd)
        248183 MiB available memory on the node where the printing process lives
------------------
     ethr =  1.13E-09,  avg # of iterations =  1.0

     negative rho (up, down):  9.099E-03 9.099E-03

     total cpu time spent up to now is    16345.3 secs

     total energy              =   -1236.04077949 Ry
     estimated scf accuracy    <       0.00000387 Ry

     total magnetization       =     0.00 Bohr mag/cell
     absolute magnetization    =     0.00 Bohr mag/cell

     iteration #345     ecut=    50.00 Ry     beta= 0.01
     Davidson diagonalization with overlap

---- Real-time Memory Report at c_bands before calling an iterative solver
          1677 MiB given to the printing process from OS
          1447 MiB allocation reported by mallinfo(arena+hblkhd)
        248728 MiB available memory on the node where the printing process lives
------------------
     ethr =  1.13E-09,  avg # of iterations =  1.0

     negative rho (up, down):  8.951E-03 8.951E-03

     total cpu time spent up to now is    16388.9 secs

     total energy              =   -1236.04078338 Ry
     estimated scf accuracy    <       0.00000358 Ry

     total magnetization       =     0.00 Bohr mag/cell
     absolute magnetization    =     0.00 Bohr mag/cell

     iteration #346     ecut=    50.00 Ry     beta= 0.01
     Davidson diagonalization with overlap

---- Real-time Memory Report at c_bands before calling an iterative solver
          1677 MiB given to the printing process from OS
          1447 MiB allocation reported by mallinfo(arena+hblkhd)
        248437 MiB available memory on the node where the printing process lives
------------------
     ethr =  1.13E-09,  avg # of iterations =  1.0

     negative rho (up, down):  8.679E-03 8.679E-03

     total cpu time spent up to now is    16433.0 secs

     total energy              =   -1236.04079117 Ry
     estimated scf accuracy    <       0.00000331 Ry

     total magnetization       =     0.00 Bohr mag/cell
     absolute magnetization    =     0.00 Bohr mag/cell

     iteration #347     ecut=    50.00 Ry     beta= 0.01
     Davidson diagonalization with overlap

---- Real-time Memory Report at c_bands before calling an iterative solver
          1677 MiB given to the printing process from OS
          1447 MiB allocation reported by mallinfo(arena+hblkhd)
        247868 MiB available memory on the node where the printing process lives
------------------
     ethr =  1.13E-09,  avg # of iterations =  1.0

     negative rho (up, down):  8.655E-03 8.655E-03

     total cpu time spent up to now is    16476.6 secs

     total energy              =   -1236.04079185 Ry
     estimated scf accuracy    <       0.00000276 Ry

     total magnetization       =     0.00 Bohr mag/cell
     absolute magnetization    =     0.00 Bohr mag/cell

     iteration #348     ecut=    50.00 Ry     beta= 0.01
     Davidson diagonalization with overlap

---- Real-time Memory Report at c_bands before calling an iterative solver
          1677 MiB given to the printing process from OS
          1447 MiB allocation reported by mallinfo(arena+hblkhd)
        248518 MiB available memory on the node where the printing process lives
------------------
     ethr =  1.11E-09,  avg # of iterations =  1.0

     negative rho (up, down):  8.539E-03 8.539E-03

     total cpu time spent up to now is    16520.2 secs

     total energy              =   -1236.04079351 Ry
     estimated scf accuracy    <       0.00000280 Ry

     total magnetization       =    -0.00 Bohr mag/cell
     absolute magnetization    =     0.00 Bohr mag/cell

     iteration #349     ecut=    50.00 Ry     beta= 0.01
     Davidson diagonalization with overlap

---- Real-time Memory Report at c_bands before calling an iterative solver
          1677 MiB given to the printing process from OS
          1447 MiB allocation reported by mallinfo(arena+hblkhd)
        248469 MiB available memory on the node where the printing process lives
------------------
     ethr =  1.11E-09,  avg # of iterations =  1.0

     negative rho (up, down):  8.629E-03 8.629E-03

     total cpu time spent up to now is    16564.2 secs

     total energy              =   -1236.04079166 Ry
     estimated scf accuracy    <       0.00000269 Ry

     total magnetization       =    -0.00 Bohr mag/cell
     absolute magnetization    =     0.00 Bohr mag/cell

     iteration #350     ecut=    50.00 Ry     beta= 0.01
     Davidson diagonalization with overlap

---- Real-time Memory Report at c_bands before calling an iterative solver
          1677 MiB given to the printing process from OS
          1447 MiB allocation reported by mallinfo(arena+hblkhd)
        248473 MiB available memory on the node where the printing process lives
------------------
     ethr =  1.09E-09,  avg # of iterations =  1.0

     negative rho (up, down):  7.960E-03 7.961E-03

     total cpu time spent up to now is    16607.7 secs

     total energy              =   -1236.04081070 Ry
     estimated scf accuracy    <       0.00000277 Ry

     total magnetization       =     0.00 Bohr mag/cell
     absolute magnetization    =     0.00 Bohr mag/cell

     iteration #351     ecut=    50.00 Ry     beta= 0.01
     Davidson diagonalization with overlap

---- Real-time Memory Report at c_bands before calling an iterative solver
          1677 MiB given to the printing process from OS
          1447 MiB allocation reported by mallinfo(arena+hblkhd)
        248251 MiB available memory on the node where the printing process lives
------------------
     ethr =  1.09E-09,  avg # of iterations =  1.2

     negative rho (up, down):  7.965E-03 7.965E-03

     total cpu time spent up to now is    16652.7 secs

     total energy              =   -1236.04081048 Ry
     estimated scf accuracy    <       0.00000239 Ry

     total magnetization       =     0.00 Bohr mag/cell
     absolute magnetization    =     0.00 Bohr mag/cell

     iteration #352     ecut=    50.00 Ry     beta= 0.01
     Davidson diagonalization with overlap

---- Real-time Memory Report at c_bands before calling an iterative solver
          1677 MiB given to the printing process from OS
          1447 MiB allocation reported by mallinfo(arena+hblkhd)
        248181 MiB available memory on the node where the printing process lives
------------------
     ethr =  9.64E-10,  avg # of iterations =  1.0

     negative rho (up, down):  8.117E-03 8.118E-03

     total cpu time spent up to now is    16696.8 secs

     total energy              =   -1236.04081319 Ry
     estimated scf accuracy    <       0.00000263 Ry

     total magnetization       =     0.00 Bohr mag/cell
     absolute magnetization    =     0.00 Bohr mag/cell

     iteration #353     ecut=    50.00 Ry     beta= 0.01
     Davidson diagonalization with overlap

---- Real-time Memory Report at c_bands before calling an iterative solver
          1677 MiB given to the printing process from OS
          1447 MiB allocation reported by mallinfo(arena+hblkhd)
        248493 MiB available memory on the node where the printing process lives
------------------
     ethr =  9.64E-10,  avg # of iterations =  1.0

     negative rho (up, down):  8.257E-03 8.257E-03

     total cpu time spent up to now is    16741.2 secs

     total energy              =   -1236.04081004 Ry
     estimated scf accuracy    <       0.00000239 Ry

     total magnetization       =    -0.00 Bohr mag/cell
     absolute magnetization    =     0.00 Bohr mag/cell

     iteration #354     ecut=    50.00 Ry     beta= 0.01
     Davidson diagonalization with overlap

---- Real-time Memory Report at c_bands before calling an iterative solver
          1677 MiB given to the printing process from OS
          1447 MiB allocation reported by mallinfo(arena+hblkhd)
        248399 MiB available memory on the node where the printing process lives
------------------
     ethr =  9.63E-10,  avg # of iterations =  1.0

     negative rho (up, down):  7.933E-03 7.933E-03

     total cpu time spent up to now is    16784.9 secs

     total energy              =   -1236.04079801 Ry
     estimated scf accuracy    <       0.00000216 Ry

     total magnetization       =     0.00 Bohr mag/cell
     absolute magnetization    =     0.00 Bohr mag/cell

     iteration #355     ecut=    50.00 Ry     beta= 0.01
     Davidson diagonalization with overlap

---- Real-time Memory Report at c_bands before calling an iterative solver
          1677 MiB given to the printing process from OS
          1447 MiB allocation reported by mallinfo(arena+hblkhd)
        248851 MiB available memory on the node where the printing process lives
------------------
     ethr =  8.69E-10,  avg # of iterations =  1.0

     negative rho (up, down):  7.933E-03 7.933E-03

     total cpu time spent up to now is    16829.2 secs

     total energy              =   -1236.04079715 Ry
     estimated scf accuracy    <       0.00000203 Ry

     total magnetization       =     0.00 Bohr mag/cell
     absolute magnetization    =     0.00 Bohr mag/cell

     iteration #356     ecut=    50.00 Ry     beta= 0.01
     Davidson diagonalization with overlap

---- Real-time Memory Report at c_bands before calling an iterative solver
          1677 MiB given to the printing process from OS
          1447 MiB allocation reported by mallinfo(arena+hblkhd)
        248413 MiB available memory on the node where the printing process lives
------------------
     ethr =  8.17E-10,  avg # of iterations =  1.0

     negative rho (up, down):  8.010E-03 8.011E-03

     total cpu time spent up to now is    16873.2 secs

     total energy              =   -1236.04080061 Ry
     estimated scf accuracy    <       0.00000204 Ry

     total magnetization       =    -0.00 Bohr mag/cell
     absolute magnetization    =     0.00 Bohr mag/cell

     iteration #357     ecut=    50.00 Ry     beta= 0.01
     Davidson diagonalization with overlap

---- Real-time Memory Report at c_bands before calling an iterative solver
          1677 MiB given to the printing process from OS
          1447 MiB allocation reported by mallinfo(arena+hblkhd)
        248177 MiB available memory on the node where the printing process lives
------------------
     ethr =  8.17E-10,  avg # of iterations =  1.0

     negative rho (up, down):  7.980E-03 7.980E-03

     total cpu time spent up to now is    16916.9 secs

     total energy              =   -1236.04079860 Ry
     estimated scf accuracy    <       0.00000202 Ry

     total magnetization       =     0.00 Bohr mag/cell
     absolute magnetization    =     0.00 Bohr mag/cell

     iteration #358     ecut=    50.00 Ry     beta= 0.01
     Davidson diagonalization with overlap

---- Real-time Memory Report at c_bands before calling an iterative solver
          1677 MiB given to the printing process from OS
          1447 MiB allocation reported by mallinfo(arena+hblkhd)
        248352 MiB available memory on the node where the printing process lives
------------------
     ethr =  8.14E-10,  avg # of iterations =  1.0

     negative rho (up, down):  7.945E-03 7.945E-03

     total cpu time spent up to now is    16960.5 secs

     total energy              =   -1236.04079848 Ry
     estimated scf accuracy    <       0.00000192 Ry

     total magnetization       =     0.00 Bohr mag/cell
     absolute magnetization    =     0.00 Bohr mag/cell

     iteration #359     ecut=    50.00 Ry     beta= 0.01
     Davidson diagonalization with overlap

---- Real-time Memory Report at c_bands before calling an iterative solver
          1677 MiB given to the printing process from OS
          1447 MiB allocation reported by mallinfo(arena+hblkhd)
        248345 MiB available memory on the node where the printing process lives
------------------
     ethr =  7.74E-10,  avg # of iterations =  1.0

     negative rho (up, down):  6.948E-03 6.949E-03

     total cpu time spent up to now is    17004.9 secs

     total energy              =   -1236.04082261 Ry
     estimated scf accuracy    <       0.00000179 Ry

     total magnetization       =     0.00 Bohr mag/cell
     absolute magnetization    =     0.00 Bohr mag/cell

     iteration #360     ecut=    50.00 Ry     beta= 0.01
     Davidson diagonalization with overlap

---- Real-time Memory Report at c_bands before calling an iterative solver
          1677 MiB given to the printing process from OS
          1447 MiB allocation reported by mallinfo(arena+hblkhd)
        247990 MiB available memory on the node where the printing process lives
------------------
     ethr =  7.21E-10,  avg # of iterations =  2.0

     negative rho (up, down):  6.903E-03 6.903E-03

     total cpu time spent up to now is    17052.0 secs

     total energy              =   -1236.04082159 Ry
     estimated scf accuracy    <       0.00000104 Ry

     total magnetization       =     0.00 Bohr mag/cell
     absolute magnetization    =     0.00 Bohr mag/cell

     iteration #361     ecut=    50.00 Ry     beta= 0.01
     Davidson diagonalization with overlap

---- Real-time Memory Report at c_bands before calling an iterative solver
          1677 MiB given to the printing process from OS
          1447 MiB allocation reported by mallinfo(arena+hblkhd)
        248082 MiB available memory on the node where the printing process lives
------------------
     ethr =  4.19E-10,  avg # of iterations =  1.0

     negative rho (up, down):  6.678E-03 6.678E-03

     total cpu time spent up to now is    17096.1 secs

     total energy              =   -1236.04082666 Ry
     estimated scf accuracy    <       0.00000081 Ry

     total magnetization       =     0.00 Bohr mag/cell
     absolute magnetization    =     0.00 Bohr mag/cell

     iteration #362     ecut=    50.00 Ry     beta= 0.01
     Davidson diagonalization with overlap

---- Real-time Memory Report at c_bands before calling an iterative solver
          1677 MiB given to the printing process from OS
          1447 MiB allocation reported by mallinfo(arena+hblkhd)
        247928 MiB available memory on the node where the printing process lives
------------------
     ethr =  3.28E-10,  avg # of iterations =  1.5

     negative rho (up, down):  6.688E-03 6.688E-03

     total cpu time spent up to now is    17142.2 secs

     total energy              =   -1236.04082621 Ry
     estimated scf accuracy    <       0.00000092 Ry

     total magnetization       =     0.00 Bohr mag/cell
     absolute magnetization    =     0.00 Bohr mag/cell

     iteration #363     ecut=    50.00 Ry     beta= 0.01
     Davidson diagonalization with overlap

---- Real-time Memory Report at c_bands before calling an iterative solver
          1677 MiB given to the printing process from OS
          1447 MiB allocation reported by mallinfo(arena+hblkhd)
        248250 MiB available memory on the node where the printing process lives
------------------
     ethr =  3.28E-10,  avg # of iterations =  1.0

     negative rho (up, down):  6.637E-03 6.638E-03

     total cpu time spent up to now is    17186.3 secs

     total energy              =   -1236.04082577 Ry
     estimated scf accuracy    <       0.00000089 Ry

     total magnetization       =     0.00 Bohr mag/cell
     absolute magnetization    =     0.00 Bohr mag/cell

     iteration #364     ecut=    50.00 Ry     beta= 0.01
     Davidson diagonalization with overlap

---- Real-time Memory Report at c_bands before calling an iterative solver
          1677 MiB given to the printing process from OS
          1447 MiB allocation reported by mallinfo(arena+hblkhd)
        273278 MiB available memory on the node where the printing process lives
------------------
     ethr =  3.28E-10,  avg # of iterations =  1.0

     negative rho (up, down):  6.647E-03 6.647E-03

     total cpu time spent up to now is    17229.9 secs

     total energy              =   -1236.04082644 Ry
     estimated scf accuracy    <       0.00000091 Ry

     total magnetization       =     0.00 Bohr mag/cell
     absolute magnetization    =     0.00 Bohr mag/cell

     iteration #365     ecut=    50.00 Ry     beta= 0.01
     Davidson diagonalization with overlap

---- Real-time Memory Report at c_bands before calling an iterative solver
          1677 MiB given to the printing process from OS
          1447 MiB allocation reported by mallinfo(arena+hblkhd)
        273035 MiB available memory on the node where the printing process lives
------------------
     ethr =  3.28E-10,  avg # of iterations =  1.0

     negative rho (up, down):  6.708E-03 6.708E-03

     total cpu time spent up to now is    17273.4 secs

     total energy              =   -1236.04082646 Ry
     estimated scf accuracy    <       0.00000106 Ry

     total magnetization       =     0.00 Bohr mag/cell
     absolute magnetization    =     0.00 Bohr mag/cell

     iteration #366     ecut=    50.00 Ry     beta= 0.01
     Davidson diagonalization with overlap

---- Real-time Memory Report at c_bands before calling an iterative solver
          1677 MiB given to the printing process from OS
          1447 MiB allocation reported by mallinfo(arena+hblkhd)
        273272 MiB available memory on the node where the printing process lives
------------------
     ethr =  3.28E-10,  avg # of iterations =  1.0

     negative rho (up, down):  6.449E-03 6.449E-03

     total cpu time spent up to now is    17317.6 secs

     total energy              =   -1236.04082910 Ry
     estimated scf accuracy    <       0.00000096 Ry

     total magnetization       =    -0.00 Bohr mag/cell
     absolute magnetization    =     0.00 Bohr mag/cell

     iteration #367     ecut=    50.00 Ry     beta= 0.01
     Davidson diagonalization with overlap

---- Real-time Memory Report at c_bands before calling an iterative solver
          1677 MiB given to the printing process from OS
          1447 MiB allocation reported by mallinfo(arena+hblkhd)
        273042 MiB available memory on the node where the printing process lives
------------------
     ethr =  3.28E-10,  avg # of iterations =  2.0

     negative rho (up, down):  6.216E-03 6.216E-03

     total cpu time spent up to now is    17365.0 secs

     total energy              =   -1236.04083292 Ry
     estimated scf accuracy    <       0.00000151 Ry

     total magnetization       =    -0.00 Bohr mag/cell
     absolute magnetization    =     0.00 Bohr mag/cell

     iteration #368     ecut=    50.00 Ry     beta= 0.01
     Davidson diagonalization with overlap

---- Real-time Memory Report at c_bands before calling an iterative solver
          1677 MiB given to the printing process from OS
          1447 MiB allocation reported by mallinfo(arena+hblkhd)
        272808 MiB available memory on the node where the printing process lives
------------------
     ethr =  3.28E-10,  avg # of iterations =  1.0

     negative rho (up, down):  6.192E-03 6.192E-03

     total cpu time spent up to now is    17408.8 secs

     total energy              =   -1236.04083431 Ry
     estimated scf accuracy    <       0.00000096 Ry

     total magnetization       =     0.00 Bohr mag/cell
     absolute magnetization    =     0.00 Bohr mag/cell

     iteration #369     ecut=    50.00 Ry     beta= 0.01
     Davidson diagonalization with overlap

---- Real-time Memory Report at c_bands before calling an iterative solver
          1677 MiB given to the printing process from OS
          1447 MiB allocation reported by mallinfo(arena+hblkhd)
        275643 MiB available memory on the node where the printing process lives
------------------
     ethr =  3.28E-10,  avg # of iterations =  1.0

     negative rho (up, down):  6.202E-03 6.202E-03

     total cpu time spent up to now is    17452.4 secs

     total energy              =   -1236.04083405 Ry
     estimated scf accuracy    <       0.00000086 Ry

     total magnetization       =    -0.00 Bohr mag/cell
     absolute magnetization    =     0.00 Bohr mag/cell

     iteration #370     ecut=    50.00 Ry     beta= 0.01
     Davidson diagonalization with overlap

---- Real-time Memory Report at c_bands before calling an iterative solver
          1677 MiB given to the printing process from OS
          1447 MiB allocation reported by mallinfo(arena+hblkhd)
        265534 MiB available memory on the node where the printing process lives
------------------
     ethr =  3.28E-10,  avg # of iterations =  1.0

     negative rho (up, down):  6.180E-03 6.180E-03

     total cpu time spent up to now is    17496.5 secs

     total energy              =   -1236.04083508 Ry
     estimated scf accuracy    <       0.00000087 Ry

     total magnetization       =    -0.00 Bohr mag/cell
     absolute magnetization    =     0.00 Bohr mag/cell

     iteration #371     ecut=    50.00 Ry     beta= 0.01
     Davidson diagonalization with overlap

---- Real-time Memory Report at c_bands before calling an iterative solver
          1677 MiB given to the printing process from OS
          1447 MiB allocation reported by mallinfo(arena+hblkhd)
        263102 MiB available memory on the node where the printing process lives
------------------
     ethr =  3.28E-10,  avg # of iterations =  1.0

     negative rho (up, down):  6.261E-03 6.261E-03

     total cpu time spent up to now is    17540.2 secs

     total energy              =   -1236.04083290 Ry
     estimated scf accuracy    <       0.00000077 Ry

     total magnetization       =     0.00 Bohr mag/cell
     absolute magnetization    =     0.00 Bohr mag/cell

     iteration #372     ecut=    50.00 Ry     beta= 0.01
     Davidson diagonalization with overlap

---- Real-time Memory Report at c_bands before calling an iterative solver
          1677 MiB given to the printing process from OS
          1447 MiB allocation reported by mallinfo(arena+hblkhd)
        246597 MiB available memory on the node where the printing process lives
------------------
     ethr =  3.12E-10,  avg # of iterations =  1.0

     negative rho (up, down):  6.264E-03 6.264E-03

     total cpu time spent up to now is    17583.9 secs

     total energy              =   -1236.04083370 Ry
     estimated scf accuracy    <       0.00000083 Ry

     total magnetization       =     0.00 Bohr mag/cell
     absolute magnetization    =     0.00 Bohr mag/cell

     iteration #373     ecut=    50.00 Ry     beta= 0.01
     Davidson diagonalization with overlap

---- Real-time Memory Report at c_bands before calling an iterative solver
          1677 MiB given to the printing process from OS
          1447 MiB allocation reported by mallinfo(arena+hblkhd)
        244334 MiB available memory on the node where the printing process lives
------------------
     ethr =  3.12E-10,  avg # of iterations =  1.0

     negative rho (up, down):  6.275E-03 6.275E-03

     total cpu time spent up to now is    17627.9 secs

     total energy              =   -1236.04083263 Ry
     estimated scf accuracy    <       0.00000080 Ry

     total magnetization       =    -0.00 Bohr mag/cell
     absolute magnetization    =     0.00 Bohr mag/cell

     iteration #374     ecut=    50.00 Ry     beta= 0.01
     Davidson diagonalization with overlap

---- Real-time Memory Report at c_bands before calling an iterative solver
          1677 MiB given to the printing process from OS
          1447 MiB allocation reported by mallinfo(arena+hblkhd)
        244279 MiB available memory on the node where the printing process lives
------------------
     ethr =  3.12E-10,  avg # of iterations =  1.0

     negative rho (up, down):  6.242E-03 6.242E-03

     total cpu time spent up to now is    17672.0 secs

     total energy              =   -1236.04083401 Ry
     estimated scf accuracy    <       0.00000075 Ry

     total magnetization       =    -0.00 Bohr mag/cell
     absolute magnetization    =     0.00 Bohr mag/cell

     iteration #375     ecut=    50.00 Ry     beta= 0.01
     Davidson diagonalization with overlap

---- Real-time Memory Report at c_bands before calling an iterative solver
          1677 MiB given to the printing process from OS
          1447 MiB allocation reported by mallinfo(arena+hblkhd)
        244152 MiB available memory on the node where the printing process lives
------------------
     ethr =  3.03E-10,  avg # of iterations =  1.0

     negative rho (up, down):  6.270E-03 6.270E-03

     total cpu time spent up to now is    17715.6 secs

     total energy              =   -1236.04083485 Ry
     estimated scf accuracy    <       0.00000088 Ry

     total magnetization       =     0.00 Bohr mag/cell
     absolute magnetization    =     0.00 Bohr mag/cell

     iteration #376     ecut=    50.00 Ry     beta= 0.01
     Davidson diagonalization with overlap

---- Real-time Memory Report at c_bands before calling an iterative solver
          1677 MiB given to the printing process from OS
          1447 MiB allocation reported by mallinfo(arena+hblkhd)
        244932 MiB available memory on the node where the printing process lives
------------------
     ethr =  3.03E-10,  avg # of iterations =  1.0

     negative rho (up, down):  6.263E-03 6.263E-03

     total cpu time spent up to now is    17760.0 secs

     total energy              =   -1236.04083496 Ry
     estimated scf accuracy    <       0.00000084 Ry

     total magnetization       =     0.00 Bohr mag/cell
     absolute magnetization    =     0.00 Bohr mag/cell

     iteration #377     ecut=    50.00 Ry     beta= 0.01
     Davidson diagonalization with overlap

---- Real-time Memory Report at c_bands before calling an iterative solver
          1677 MiB given to the printing process from OS
          1447 MiB allocation reported by mallinfo(arena+hblkhd)
        244672 MiB available memory on the node where the printing process lives
------------------
     ethr =  3.03E-10,  avg # of iterations =  1.0

     negative rho (up, down):  6.275E-03 6.275E-03

     total cpu time spent up to now is    17803.5 secs

     total energy              =   -1236.04083660 Ry
     estimated scf accuracy    <       0.00000084 Ry

     total magnetization       =    -0.00 Bohr mag/cell
     absolute magnetization    =     0.00 Bohr mag/cell

     iteration #378     ecut=    50.00 Ry     beta= 0.01
     Davidson diagonalization with overlap

---- Real-time Memory Report at c_bands before calling an iterative solver
          1677 MiB given to the printing process from OS
          1447 MiB allocation reported by mallinfo(arena+hblkhd)
        244662 MiB available memory on the node where the printing process lives
------------------
     ethr =  3.03E-10,  avg # of iterations =  1.0

     negative rho (up, down):  6.275E-03 6.275E-03

     total cpu time spent up to now is    17847.2 secs

     total energy              =   -1236.04083679 Ry
     estimated scf accuracy    <       0.00000060 Ry

     total magnetization       =    -0.00 Bohr mag/cell
     absolute magnetization    =     0.00 Bohr mag/cell

     iteration #379     ecut=    50.00 Ry     beta= 0.01
     Davidson diagonalization with overlap

---- Real-time Memory Report at c_bands before calling an iterative solver
          1677 MiB given to the printing process from OS
          1447 MiB allocation reported by mallinfo(arena+hblkhd)
        244287 MiB available memory on the node where the printing process lives
------------------
     ethr =  2.43E-10,  avg # of iterations =  1.0

     negative rho (up, down):  6.237E-03 6.237E-03

     total cpu time spent up to now is    17891.2 secs

     total energy              =   -1236.04083586 Ry
     estimated scf accuracy    <       0.00000060 Ry

     total magnetization       =     0.00 Bohr mag/cell
     absolute magnetization    =     0.00 Bohr mag/cell

     iteration #380     ecut=    50.00 Ry     beta= 0.01
     Davidson diagonalization with overlap

---- Real-time Memory Report at c_bands before calling an iterative solver
          1677 MiB given to the printing process from OS
          1447 MiB allocation reported by mallinfo(arena+hblkhd)
        244071 MiB available memory on the node where the printing process lives
------------------
     ethr =  2.42E-10,  avg # of iterations =  1.0

     negative rho (up, down):  6.306E-03 6.306E-03

     total cpu time spent up to now is    17935.0 secs

     total energy              =   -1236.04083577 Ry
     estimated scf accuracy    <       0.00000057 Ry

     total magnetization       =     0.00 Bohr mag/cell
     absolute magnetization    =     0.00 Bohr mag/cell

     iteration #381     ecut=    50.00 Ry     beta= 0.01
     Davidson diagonalization with overlap

---- Real-time Memory Report at c_bands before calling an iterative solver
          1677 MiB given to the printing process from OS
          1447 MiB allocation reported by mallinfo(arena+hblkhd)
        244297 MiB available memory on the node where the printing process lives
------------------
     ethr =  2.28E-10,  avg # of iterations =  1.0

     negative rho (up, down):  6.315E-03 6.315E-03

     total cpu time spent up to now is    17978.5 secs

     total energy              =   -1236.04083497 Ry
     estimated scf accuracy    <       0.00000056 Ry

     total magnetization       =     0.00 Bohr mag/cell
     absolute magnetization    =     0.00 Bohr mag/cell

     iteration #382     ecut=    50.00 Ry     beta= 0.01
     Davidson diagonalization with overlap

---- Real-time Memory Report at c_bands before calling an iterative solver
          1677 MiB given to the printing process from OS
          1447 MiB allocation reported by mallinfo(arena+hblkhd)
        244509 MiB available memory on the node where the printing process lives
------------------
     ethr =  2.26E-10,  avg # of iterations =  1.0

     negative rho (up, down):  6.354E-03 6.354E-03

     total cpu time spent up to now is    18022.1 secs

     total energy              =   -1236.04083539 Ry
     estimated scf accuracy    <       0.00000055 Ry

     total magnetization       =    -0.00 Bohr mag/cell
     absolute magnetization    =     0.00 Bohr mag/cell

     iteration #383     ecut=    50.00 Ry     beta= 0.01
     Davidson diagonalization with overlap

---- Real-time Memory Report at c_bands before calling an iterative solver
          1677 MiB given to the printing process from OS
          1447 MiB allocation reported by mallinfo(arena+hblkhd)
        244544 MiB available memory on the node where the printing process lives
------------------
     ethr =  2.24E-10,  avg # of iterations =  1.0

     negative rho (up, down):  6.351E-03 6.351E-03

     total cpu time spent up to now is    18065.9 secs

     total energy              =   -1236.04083665 Ry
     estimated scf accuracy    <       0.00000051 Ry

     total magnetization       =     0.00 Bohr mag/cell
     absolute magnetization    =     0.00 Bohr mag/cell

     iteration #384     ecut=    50.00 Ry     beta= 0.01
     Davidson diagonalization with overlap

---- Real-time Memory Report at c_bands before calling an iterative solver
          1677 MiB given to the printing process from OS
          1447 MiB allocation reported by mallinfo(arena+hblkhd)
        244439 MiB available memory on the node where the printing process lives
------------------
     ethr =  2.07E-10,  avg # of iterations =  1.0

     negative rho (up, down):  6.329E-03 6.329E-03

     total cpu time spent up to now is    18109.9 secs

     total energy              =   -1236.04083657 Ry
     estimated scf accuracy    <       0.00000051 Ry

     total magnetization       =    -0.00 Bohr mag/cell
     absolute magnetization    =     0.00 Bohr mag/cell

     iteration #385     ecut=    50.00 Ry     beta= 0.01
     Davidson diagonalization with overlap

---- Real-time Memory Report at c_bands before calling an iterative solver
          1677 MiB given to the printing process from OS
          1447 MiB allocation reported by mallinfo(arena+hblkhd)
        244534 MiB available memory on the node where the printing process lives
------------------
     ethr =  2.04E-10,  avg # of iterations =  1.0

     negative rho (up, down):  6.317E-03 6.317E-03

     total cpu time spent up to now is    18153.6 secs

     total energy              =   -1236.04083652 Ry
     estimated scf accuracy    <       0.00000053 Ry

     total magnetization       =    -0.00 Bohr mag/cell
     absolute magnetization    =     0.00 Bohr mag/cell

     iteration #386     ecut=    50.00 Ry     beta= 0.01
     Davidson diagonalization with overlap

---- Real-time Memory Report at c_bands before calling an iterative solver
          1677 MiB given to the printing process from OS
          1447 MiB allocation reported by mallinfo(arena+hblkhd)
        244496 MiB available memory on the node where the printing process lives
------------------
     ethr =  2.04E-10,  avg # of iterations =  1.0

     negative rho (up, down):  6.319E-03 6.319E-03

     total cpu time spent up to now is    18197.2 secs

     total energy              =   -1236.04083663 Ry
     estimated scf accuracy    <       0.00000054 Ry

     total magnetization       =    -0.00 Bohr mag/cell
     absolute magnetization    =     0.00 Bohr mag/cell

     iteration #387     ecut=    50.00 Ry     beta= 0.01
     Davidson diagonalization with overlap

---- Real-time Memory Report at c_bands before calling an iterative solver
          1677 MiB given to the printing process from OS
          1447 MiB allocation reported by mallinfo(arena+hblkhd)
        244470 MiB available memory on the node where the printing process lives
------------------
     ethr =  2.04E-10,  avg # of iterations =  1.0

     negative rho (up, down):  6.341E-03 6.341E-03

     total cpu time spent up to now is    18240.7 secs

     total energy              =   -1236.04083704 Ry
     estimated scf accuracy    <       0.00000049 Ry

     total magnetization       =     0.00 Bohr mag/cell
     absolute magnetization    =     0.00 Bohr mag/cell

     iteration #388     ecut=    50.00 Ry     beta= 0.01
     Davidson diagonalization with overlap

---- Real-time Memory Report at c_bands before calling an iterative solver
          1677 MiB given to the printing process from OS
          1447 MiB allocation reported by mallinfo(arena+hblkhd)
        244531 MiB available memory on the node where the printing process lives
------------------
     ethr =  1.98E-10,  avg # of iterations =  1.0

     negative rho (up, down):  6.355E-03 6.355E-03

     total cpu time spent up to now is    18284.8 secs

     total energy              =   -1236.04083746 Ry
     estimated scf accuracy    <       0.00000046 Ry

     total magnetization       =    -0.00 Bohr mag/cell
     absolute magnetization    =     0.00 Bohr mag/cell

     iteration #389     ecut=    50.00 Ry     beta= 0.01
     Davidson diagonalization with overlap

---- Real-time Memory Report at c_bands before calling an iterative solver
          1677 MiB given to the printing process from OS
          1447 MiB allocation reported by mallinfo(arena+hblkhd)
        244033 MiB available memory on the node where the printing process lives
------------------
     ethr =  1.87E-10,  avg # of iterations =  1.0

     negative rho (up, down):  6.352E-03 6.352E-03

     total cpu time spent up to now is    18328.5 secs

     total energy              =   -1236.04083765 Ry
     estimated scf accuracy    <       0.00000044 Ry

     total magnetization       =     0.00 Bohr mag/cell
     absolute magnetization    =     0.00 Bohr mag/cell

     iteration #390     ecut=    50.00 Ry     beta= 0.01
     Davidson diagonalization with overlap

---- Real-time Memory Report at c_bands before calling an iterative solver
          1677 MiB given to the printing process from OS
          1447 MiB allocation reported by mallinfo(arena+hblkhd)
        244579 MiB available memory on the node where the printing process lives
------------------
     ethr =  1.77E-10,  avg # of iterations =  1.0

     negative rho (up, down):  6.352E-03 6.352E-03

     total cpu time spent up to now is    18372.0 secs

     total energy              =   -1236.04083796 Ry
     estimated scf accuracy    <       0.00000043 Ry

     total magnetization       =     0.00 Bohr mag/cell
     absolute magnetization    =     0.00 Bohr mag/cell

     iteration #391     ecut=    50.00 Ry     beta= 0.01
     Davidson diagonalization with overlap

---- Real-time Memory Report at c_bands before calling an iterative solver
          1677 MiB given to the printing process from OS
          1447 MiB allocation reported by mallinfo(arena+hblkhd)
        244206 MiB available memory on the node where the printing process lives
------------------
     ethr =  1.75E-10,  avg # of iterations =  1.0

     negative rho (up, down):  6.359E-03 6.359E-03

     total cpu time spent up to now is    18416.4 secs

     total energy              =   -1236.04083903 Ry
     estimated scf accuracy    <       0.00000045 Ry

     total magnetization       =     0.00 Bohr mag/cell
     absolute magnetization    =     0.00 Bohr mag/cell

     iteration #392     ecut=    50.00 Ry     beta= 0.01
     Davidson diagonalization with overlap

---- Real-time Memory Report at c_bands before calling an iterative solver
          1677 MiB given to the printing process from OS
          1447 MiB allocation reported by mallinfo(arena+hblkhd)
        244066 MiB available memory on the node where the printing process lives
------------------
     ethr =  1.75E-10,  avg # of iterations =  1.0

     negative rho (up, down):  6.359E-03 6.359E-03

     total cpu time spent up to now is    18460.6 secs

     total energy              =   -1236.04083889 Ry
     estimated scf accuracy    <       0.00000043 Ry

     total magnetization       =    -0.00 Bohr mag/cell
     absolute magnetization    =     0.00 Bohr mag/cell

     iteration #393     ecut=    50.00 Ry     beta= 0.01
     Davidson diagonalization with overlap

---- Real-time Memory Report at c_bands before calling an iterative solver
          1677 MiB given to the printing process from OS
          1447 MiB allocation reported by mallinfo(arena+hblkhd)
        244282 MiB available memory on the node where the printing process lives
------------------
     ethr =  1.72E-10,  avg # of iterations =  1.0

     negative rho (up, down):  6.292E-03 6.292E-03

     total cpu time spent up to now is    18504.4 secs

     total energy              =   -1236.04083966 Ry
     estimated scf accuracy    <       0.00000042 Ry

     total magnetization       =     0.00 Bohr mag/cell
     absolute magnetization    =     0.00 Bohr mag/cell

     iteration #394     ecut=    50.00 Ry     beta= 0.01
     Davidson diagonalization with overlap

---- Real-time Memory Report at c_bands before calling an iterative solver
          1677 MiB given to the printing process from OS
          1447 MiB allocation reported by mallinfo(arena+hblkhd)
        244339 MiB available memory on the node where the printing process lives
------------------
     ethr =  1.67E-10,  avg # of iterations =  1.0

     negative rho (up, down):  6.160E-03 6.160E-03

     total cpu time spent up to now is    18547.8 secs

     total energy              =   -1236.04084160 Ry
     estimated scf accuracy    <       0.00000037 Ry

     total magnetization       =    -0.00 Bohr mag/cell
     absolute magnetization    =     0.00 Bohr mag/cell

     iteration #395     ecut=    50.00 Ry     beta= 0.01
     Davidson diagonalization with overlap

---- Real-time Memory Report at c_bands before calling an iterative solver
          1677 MiB given to the printing process from OS
          1447 MiB allocation reported by mallinfo(arena+hblkhd)
        244031 MiB available memory on the node where the printing process lives
------------------
     ethr =  1.50E-10,  avg # of iterations =  1.0

     negative rho (up, down):  6.147E-03 6.147E-03

     total cpu time spent up to now is    18591.9 secs

     total energy              =   -1236.04084224 Ry
     estimated scf accuracy    <       0.00000031 Ry

     total magnetization       =    -0.00 Bohr mag/cell
     absolute magnetization    =     0.00 Bohr mag/cell

     iteration #396     ecut=    50.00 Ry     beta= 0.01
     Davidson diagonalization with overlap

---- Real-time Memory Report at c_bands before calling an iterative solver
          1677 MiB given to the printing process from OS
          1447 MiB allocation reported by mallinfo(arena+hblkhd)
        243930 MiB available memory on the node where the printing process lives
------------------
     ethr =  1.27E-10,  avg # of iterations =  1.0

     negative rho (up, down):  6.150E-03 6.150E-03

     total cpu time spent up to now is    18635.4 secs

     total energy              =   -1236.04084412 Ry
     estimated scf accuracy    <       0.00000031 Ry

     total magnetization       =    -0.00 Bohr mag/cell
     absolute magnetization    =     0.00 Bohr mag/cell

     iteration #397     ecut=    50.00 Ry     beta= 0.01
     Davidson diagonalization with overlap

---- Real-time Memory Report at c_bands before calling an iterative solver
          1677 MiB given to the printing process from OS
          1447 MiB allocation reported by mallinfo(arena+hblkhd)
        244605 MiB available memory on the node where the printing process lives
------------------
     ethr =  1.24E-10,  avg # of iterations =  1.0

     negative rho (up, down):  6.160E-03 6.160E-03

     total cpu time spent up to now is    18678.9 secs

     total energy              =   -1236.04084506 Ry
     estimated scf accuracy    <       0.00000029 Ry

     total magnetization       =     0.00 Bohr mag/cell
     absolute magnetization    =     0.00 Bohr mag/cell

     iteration #398     ecut=    50.00 Ry     beta= 0.01
     Davidson diagonalization with overlap

---- Real-time Memory Report at c_bands before calling an iterative solver
          1677 MiB given to the printing process from OS
          1447 MiB allocation reported by mallinfo(arena+hblkhd)
        244041 MiB available memory on the node where the printing process lives
------------------
     ethr =  1.18E-10,  avg # of iterations =  1.0

     negative rho (up, down):  6.148E-03 6.148E-03

     total cpu time spent up to now is    18722.5 secs

     total energy              =   -1236.04084542 Ry
     estimated scf accuracy    <       0.00000028 Ry

     total magnetization       =    -0.00 Bohr mag/cell
     absolute magnetization    =     0.00 Bohr mag/cell

     iteration #399     ecut=    50.00 Ry     beta= 0.01
     Davidson diagonalization with overlap

---- Real-time Memory Report at c_bands before calling an iterative solver
          1677 MiB given to the printing process from OS
          1447 MiB allocation reported by mallinfo(arena+hblkhd)
        244307 MiB available memory on the node where the printing process lives
------------------
     ethr =  1.14E-10,  avg # of iterations =  1.0

     negative rho (up, down):  6.141E-03 6.141E-03

     total cpu time spent up to now is    18766.2 secs

     total energy              =   -1236.04084597 Ry
     estimated scf accuracy    <       0.00000027 Ry

     total magnetization       =     0.00 Bohr mag/cell
     absolute magnetization    =     0.00 Bohr mag/cell

     iteration #400     ecut=    50.00 Ry     beta= 0.01
     Davidson diagonalization with overlap

---- Real-time Memory Report at c_bands before calling an iterative solver
          1677 MiB given to the printing process from OS
          1447 MiB allocation reported by mallinfo(arena+hblkhd)
        244001 MiB available memory on the node where the printing process lives
------------------
     ethr =  1.11E-10,  avg # of iterations =  1.0

     negative rho (up, down):  6.141E-03 6.141E-03

     total cpu time spent up to now is    18810.4 secs

     total energy              =   -1236.04084633 Ry
     estimated scf accuracy    <       0.00000027 Ry

     total magnetization       =    -0.00 Bohr mag/cell
     absolute magnetization    =     0.00 Bohr mag/cell

     iteration #401     ecut=    50.00 Ry     beta= 0.01
     Davidson diagonalization with overlap

---- Real-time Memory Report at c_bands before calling an iterative solver
          1677 MiB given to the printing process from OS
          1447 MiB allocation reported by mallinfo(arena+hblkhd)
        244194 MiB available memory on the node where the printing process lives
------------------
     ethr =  1.10E-10,  avg # of iterations =  1.0

     negative rho (up, down):  6.136E-03 6.136E-03

     total cpu time spent up to now is    18854.0 secs

     total energy              =   -1236.04084634 Ry
     estimated scf accuracy    <       0.00000027 Ry

     total magnetization       =    -0.00 Bohr mag/cell
     absolute magnetization    =     0.00 Bohr mag/cell

     iteration #402     ecut=    50.00 Ry     beta= 0.01
     Davidson diagonalization with overlap

---- Real-time Memory Report at c_bands before calling an iterative solver
          1677 MiB given to the printing process from OS
          1447 MiB allocation reported by mallinfo(arena+hblkhd)
        243612 MiB available memory on the node where the printing process lives
------------------
     ethr =  1.10E-10,  avg # of iterations =  1.0

     negative rho (up, down):  6.129E-03 6.129E-03

     total cpu time spent up to now is    18897.6 secs

     total energy              =   -1236.04084644 Ry
     estimated scf accuracy    <       0.00000027 Ry

     total magnetization       =    -0.00 Bohr mag/cell
     absolute magnetization    =     0.00 Bohr mag/cell

     iteration #403     ecut=    50.00 Ry     beta= 0.01
     Davidson diagonalization with overlap

---- Real-time Memory Report at c_bands before calling an iterative solver
          1677 MiB given to the printing process from OS
          1447 MiB allocation reported by mallinfo(arena+hblkhd)
        243946 MiB available memory on the node where the printing process lives
------------------
     ethr =  1.09E-10,  avg # of iterations =  1.0

     negative rho (up, down):  6.157E-03 6.157E-03

     total cpu time spent up to now is    18941.3 secs

     total energy              =   -1236.04084806 Ry
     estimated scf accuracy    <       0.00000027 Ry

     total magnetization       =     0.00 Bohr mag/cell
     absolute magnetization    =     0.00 Bohr mag/cell

     iteration #404     ecut=    50.00 Ry     beta= 0.01
     Davidson diagonalization with overlap

---- Real-time Memory Report at c_bands before calling an iterative solver
          1677 MiB given to the printing process from OS
          1447 MiB allocation reported by mallinfo(arena+hblkhd)
        244306 MiB available memory on the node where the printing process lives
------------------
     ethr =  1.07E-10,  avg # of iterations =  1.0

     negative rho (up, down):  6.178E-03 6.178E-03

     total cpu time spent up to now is    18985.5 secs

     total energy              =   -1236.04084854 Ry
     estimated scf accuracy    <       0.00000025 Ry

     total magnetization       =    -0.00 Bohr mag/cell
     absolute magnetization    =     0.00 Bohr mag/cell

     iteration #405     ecut=    50.00 Ry     beta= 0.01
     Davidson diagonalization with overlap

---- Real-time Memory Report at c_bands before calling an iterative solver
          1677 MiB given to the printing process from OS
          1447 MiB allocation reported by mallinfo(arena+hblkhd)
        244349 MiB available memory on the node where the printing process lives
------------------
     ethr =  1.02E-10,  avg # of iterations =  1.0

     negative rho (up, down):  6.189E-03 6.189E-03

     total cpu time spent up to now is    19029.1 secs

     total energy              =   -1236.04084888 Ry
     estimated scf accuracy    <       0.00000025 Ry

     total magnetization       =    -0.00 Bohr mag/cell
     absolute magnetization    =     0.00 Bohr mag/cell

     iteration #406     ecut=    50.00 Ry     beta= 0.01
     Davidson diagonalization with overlap

---- Real-time Memory Report at c_bands before calling an iterative solver
          1677 MiB given to the printing process from OS
          1447 MiB allocation reported by mallinfo(arena+hblkhd)
        244040 MiB available memory on the node where the printing process lives
------------------
     ethr =  9.96E-11,  avg # of iterations =  1.0

     negative rho (up, down):  6.191E-03 6.191E-03

     total cpu time spent up to now is    19072.7 secs

     total energy              =   -1236.04085037 Ry
     estimated scf accuracy    <       0.00000024 Ry

     total magnetization       =    -0.00 Bohr mag/cell
     absolute magnetization    =     0.00 Bohr mag/cell

     iteration #407     ecut=    50.00 Ry     beta= 0.01
     Davidson diagonalization with overlap

---- Real-time Memory Report at c_bands before calling an iterative solver
          1677 MiB given to the printing process from OS
          1447 MiB allocation reported by mallinfo(arena+hblkhd)
        244981 MiB available memory on the node where the printing process lives
------------------
     ethr =  9.78E-11,  avg # of iterations =  1.0

     negative rho (up, down):  6.182E-03 6.182E-03

     total cpu time spent up to now is    19116.2 secs

     total energy              =   -1236.04085086 Ry
     estimated scf accuracy    <       0.00000023 Ry

     total magnetization       =     0.00 Bohr mag/cell
     absolute magnetization    =     0.00 Bohr mag/cell

     iteration #408     ecut=    50.00 Ry     beta= 0.01
     Davidson diagonalization with overlap

---- Real-time Memory Report at c_bands before calling an iterative solver
          1677 MiB given to the printing process from OS
          1447 MiB allocation reported by mallinfo(arena+hblkhd)
        244241 MiB available memory on the node where the printing process lives
------------------
     ethr =  9.30E-11,  avg # of iterations =  1.0

     negative rho (up, down):  6.165E-03 6.165E-03

     total cpu time spent up to now is    19160.3 secs

     total energy              =   -1236.04085081 Ry
     estimated scf accuracy    <       0.00000022 Ry

     total magnetization       =    -0.00 Bohr mag/cell
     absolute magnetization    =     0.00 Bohr mag/cell

     iteration #409     ecut=    50.00 Ry     beta= 0.01
     Davidson diagonalization with overlap

---- Real-time Memory Report at c_bands before calling an iterative solver
          1677 MiB given to the printing process from OS
          1447 MiB allocation reported by mallinfo(arena+hblkhd)
        244280 MiB available memory on the node where the printing process lives
------------------
     ethr =  9.05E-11,  avg # of iterations =  1.0

     negative rho (up, down):  6.222E-03 6.222E-03

     total cpu time spent up to now is    19204.0 secs

     total energy              =   -1236.04085226 Ry
     estimated scf accuracy    <       0.00000019 Ry

     total magnetization       =     0.00 Bohr mag/cell
     absolute magnetization    =     0.00 Bohr mag/cell

     iteration #410     ecut=    50.00 Ry     beta= 0.01
     Davidson diagonalization with overlap

---- Real-time Memory Report at c_bands before calling an iterative solver
          1677 MiB given to the printing process from OS
          1447 MiB allocation reported by mallinfo(arena+hblkhd)
        243876 MiB available memory on the node where the printing process lives
------------------
     ethr =  7.84E-11,  avg # of iterations =  2.0

     negative rho (up, down):  6.157E-03 6.157E-03

     total cpu time spent up to now is    19258.8 secs

     total energy              =   -1236.04085269 Ry
     estimated scf accuracy    <       0.00000026 Ry

     total magnetization       =    -0.00 Bohr mag/cell
     absolute magnetization    =     0.00 Bohr mag/cell

     iteration #411     ecut=    50.00 Ry     beta= 0.01
     Davidson diagonalization with overlap

---- Real-time Memory Report at c_bands before calling an iterative solver
          1677 MiB given to the printing process from OS
          1447 MiB allocation reported by mallinfo(arena+hblkhd)
        244046 MiB available memory on the node where the printing process lives
------------------
     ethr =  7.84E-11,  avg # of iterations =  2.0

     negative rho (up, down):  6.153E-03 6.153E-03

     total cpu time spent up to now is    19309.0 secs

     total energy              =   -1236.04085299 Ry
     estimated scf accuracy    <       0.00000010 Ry

     total magnetization       =    -0.00 Bohr mag/cell
     absolute magnetization    =     0.00 Bohr mag/cell

     iteration #412     ecut=    50.00 Ry     beta= 0.01
     Davidson diagonalization with overlap

---- Real-time Memory Report at c_bands before calling an iterative solver
          1677 MiB given to the printing process from OS
          1447 MiB allocation reported by mallinfo(arena+hblkhd)
        243842 MiB available memory on the node where the printing process lives
------------------
     ethr =  3.85E-11,  avg # of iterations =  1.8

     negative rho (up, down):  6.159E-03 6.159E-03

     total cpu time spent up to now is    19355.2 secs

     total energy              =   -1236.04085336 Ry
     estimated scf accuracy    <       0.00000008 Ry

     total magnetization       =     0.00 Bohr mag/cell
     absolute magnetization    =     0.00 Bohr mag/cell

     iteration #413     ecut=    50.00 Ry     beta= 0.01
     Davidson diagonalization with overlap

---- Real-time Memory Report at c_bands before calling an iterative solver
          1677 MiB given to the printing process from OS
          1447 MiB allocation reported by mallinfo(arena+hblkhd)
        244379 MiB available memory on the node where the printing process lives
------------------
     ethr =  3.31E-11,  avg # of iterations =  1.0

     negative rho (up, down):  6.191E-03 6.191E-03

     total cpu time spent up to now is    19399.5 secs

     total energy              =   -1236.04085435 Ry
     estimated scf accuracy    <       0.00000008 Ry

     total magnetization       =    -0.00 Bohr mag/cell
     absolute magnetization    =     0.00 Bohr mag/cell

     iteration #414     ecut=    50.00 Ry     beta= 0.01
     Davidson diagonalization with overlap

---- Real-time Memory Report at c_bands before calling an iterative solver
          1677 MiB given to the printing process from OS
          1447 MiB allocation reported by mallinfo(arena+hblkhd)
        243758 MiB available memory on the node where the printing process lives
------------------
     ethr =  3.03E-11,  avg # of iterations =  2.0

     negative rho (up, down):  6.211E-03 6.211E-03

     total cpu time spent up to now is    19450.7 secs

     total energy              =   -1236.04085495 Ry
     estimated scf accuracy    <       0.00000010 Ry

     total magnetization       =     0.00 Bohr mag/cell
     absolute magnetization    =     0.00 Bohr mag/cell

     iteration #415     ecut=    50.00 Ry     beta= 0.01
     Davidson diagonalization with overlap

---- Real-time Memory Report at c_bands before calling an iterative solver
          1677 MiB given to the printing process from OS
          1447 MiB allocation reported by mallinfo(arena+hblkhd)
        271462 MiB available memory on the node where the printing process lives
------------------
     ethr =  3.03E-11,  avg # of iterations =  2.0

     negative rho (up, down):  6.234E-03 6.234E-03

     total cpu time spent up to now is    19497.8 secs

     total energy              =   -1236.04085536 Ry
     estimated scf accuracy    <       0.00000005 Ry

     total magnetization       =     0.00 Bohr mag/cell
     absolute magnetization    =     0.00 Bohr mag/cell

     iteration #416     ecut=    50.00 Ry     beta= 0.01
     Davidson diagonalization with overlap

---- Real-time Memory Report at c_bands before calling an iterative solver
          1677 MiB given to the printing process from OS
          1447 MiB allocation reported by mallinfo(arena+hblkhd)
        271467 MiB available memory on the node where the printing process lives
------------------
     ethr =  1.99E-11,  avg # of iterations =  2.0

     negative rho (up, down):  6.229E-03 6.229E-03

     total cpu time spent up to now is    19545.8 secs

     total energy              =   -1236.04085530 Ry
     estimated scf accuracy    <       0.00000006 Ry

     total magnetization       =    -0.00 Bohr mag/cell
     absolute magnetization    =     0.00 Bohr mag/cell

     iteration #417     ecut=    50.00 Ry     beta= 0.01
     Davidson diagonalization with overlap

---- Real-time Memory Report at c_bands before calling an iterative solver
          1677 MiB given to the printing process from OS
          1447 MiB allocation reported by mallinfo(arena+hblkhd)
        271422 MiB available memory on the node where the printing process lives
------------------
     ethr =  1.99E-11,  avg # of iterations =  1.0

     negative rho (up, down):  6.229E-03 6.229E-03

     total cpu time spent up to now is    19590.1 secs

     total energy              =   -1236.04085539 Ry
     estimated scf accuracy    <       0.00000005 Ry

     total magnetization       =    -0.00 Bohr mag/cell
     absolute magnetization    =     0.00 Bohr mag/cell

     iteration #418     ecut=    50.00 Ry     beta= 0.01
     Davidson diagonalization with overlap

---- Real-time Memory Report at c_bands before calling an iterative solver
          1677 MiB given to the printing process from OS
          1447 MiB allocation reported by mallinfo(arena+hblkhd)
        271175 MiB available memory on the node where the printing process lives
------------------
     ethr =  1.88E-11,  avg # of iterations =  1.0

     negative rho (up, down):  6.227E-03 6.227E-03

     total cpu time spent up to now is    19633.7 secs

     total energy              =   -1236.04085538 Ry
     estimated scf accuracy    <       0.00000004 Ry

     total magnetization       =    -0.00 Bohr mag/cell
     absolute magnetization    =     0.00 Bohr mag/cell

     iteration #419     ecut=    50.00 Ry     beta= 0.01
     Davidson diagonalization with overlap

---- Real-time Memory Report at c_bands before calling an iterative solver
          1677 MiB given to the printing process from OS
          1447 MiB allocation reported by mallinfo(arena+hblkhd)
        269345 MiB available memory on the node where the printing process lives
------------------
     ethr =  1.64E-11,  avg # of iterations =  1.0

     negative rho (up, down):  6.226E-03 6.226E-03

     total cpu time spent up to now is    19678.1 secs

     total energy              =   -1236.04085538 Ry
     estimated scf accuracy    <       0.00000004 Ry

     total magnetization       =    -0.00 Bohr mag/cell
     absolute magnetization    =     0.00 Bohr mag/cell

     iteration #420     ecut=    50.00 Ry     beta= 0.01
     Davidson diagonalization with overlap

---- Real-time Memory Report at c_bands before calling an iterative solver
          1678 MiB given to the printing process from OS
          1447 MiB allocation reported by mallinfo(arena+hblkhd)
        269628 MiB available memory on the node where the printing process lives
------------------
     ethr =  1.62E-11,  avg # of iterations =  1.0

     negative rho (up, down):  6.217E-03 6.217E-03

     total cpu time spent up to now is    19721.9 secs

     total energy              =   -1236.04085519 Ry
     estimated scf accuracy    <       0.00000004 Ry

     total magnetization       =    -0.00 Bohr mag/cell
     absolute magnetization    =     0.00 Bohr mag/cell

     iteration #421     ecut=    50.00 Ry     beta= 0.01
     Davidson diagonalization with overlap

---- Real-time Memory Report at c_bands before calling an iterative solver
          1678 MiB given to the printing process from OS
          1447 MiB allocation reported by mallinfo(arena+hblkhd)
        263801 MiB available memory on the node where the printing process lives
------------------
     ethr =  1.59E-11,  avg # of iterations =  1.0

     negative rho (up, down):  6.217E-03 6.217E-03

     total cpu time spent up to now is    19765.6 secs

     total energy              =   -1236.04085522 Ry
     estimated scf accuracy    <       0.00000004 Ry

     total magnetization       =     0.00 Bohr mag/cell
     absolute magnetization    =     0.00 Bohr mag/cell

     iteration #422     ecut=    50.00 Ry     beta= 0.01
     Davidson diagonalization with overlap

---- Real-time Memory Report at c_bands before calling an iterative solver
          1678 MiB given to the printing process from OS
          1447 MiB allocation reported by mallinfo(arena+hblkhd)
        262044 MiB available memory on the node where the printing process lives
------------------
     ethr =  1.59E-11,  avg # of iterations =  1.0

     negative rho (up, down):  6.221E-03 6.221E-03

     total cpu time spent up to now is    19809.2 secs

     total energy              =   -1236.04085522 Ry
     estimated scf accuracy    <       0.00000005 Ry

     total magnetization       =    -0.00 Bohr mag/cell
     absolute magnetization    =     0.00 Bohr mag/cell

     iteration #423     ecut=    50.00 Ry     beta= 0.01
     Davidson diagonalization with overlap

---- Real-time Memory Report at c_bands before calling an iterative solver
          1678 MiB given to the printing process from OS
          1447 MiB allocation reported by mallinfo(arena+hblkhd)
        241302 MiB available memory on the node where the printing process lives
------------------
     ethr =  1.59E-11,  avg # of iterations =  1.0

     negative rho (up, down):  6.247E-03 6.247E-03

     total cpu time spent up to now is    19853.3 secs

     total energy              =   -1236.04085565 Ry
     estimated scf accuracy    <       0.00000003 Ry

     total magnetization       =     0.00 Bohr mag/cell
     absolute magnetization    =     0.00 Bohr mag/cell

     iteration #424     ecut=    50.00 Ry     beta= 0.01
     Davidson diagonalization with overlap

---- Real-time Memory Report at c_bands before calling an iterative solver
          1678 MiB given to the printing process from OS
          1447 MiB allocation reported by mallinfo(arena+hblkhd)
        242013 MiB available memory on the node where the printing process lives
------------------
     ethr =  1.32E-11,  avg # of iterations =  2.0

     negative rho (up, down):  6.250E-03 6.250E-03

     total cpu time spent up to now is    19905.7 secs

     total energy              =   -1236.04085570 Ry
     estimated scf accuracy    <       0.00000003 Ry

     total magnetization       =    -0.00 Bohr mag/cell
     absolute magnetization    =     0.00 Bohr mag/cell

     iteration #425     ecut=    50.00 Ry     beta= 0.01
     Davidson diagonalization with overlap

---- Real-time Memory Report at c_bands before calling an iterative solver
          1678 MiB given to the printing process from OS
          1447 MiB allocation reported by mallinfo(arena+hblkhd)
        242070 MiB available memory on the node where the printing process lives
------------------
     ethr =  1.07E-11,  avg # of iterations =  1.0

     negative rho (up, down):  6.248E-03 6.248E-03

     total cpu time spent up to now is    19950.0 secs

     total energy              =   -1236.04085570 Ry
     estimated scf accuracy    <       0.00000003 Ry

     total magnetization       =     0.00 Bohr mag/cell
     absolute magnetization    =     0.00 Bohr mag/cell

     iteration #426     ecut=    50.00 Ry     beta= 0.01
     Davidson diagonalization with overlap

---- Real-time Memory Report at c_bands before calling an iterative solver
          1678 MiB given to the printing process from OS
          1447 MiB allocation reported by mallinfo(arena+hblkhd)
        241380 MiB available memory on the node where the printing process lives
------------------
     ethr =  1.03E-11,  avg # of iterations =  1.0

     negative rho (up, down):  6.251E-03 6.251E-03

     total cpu time spent up to now is    19994.2 secs

     total energy              =   -1236.04085576 Ry
     estimated scf accuracy    <       0.00000002 Ry

     total magnetization       =    -0.00 Bohr mag/cell
     absolute magnetization    =     0.00 Bohr mag/cell

     iteration #427     ecut=    50.00 Ry     beta= 0.01
     Davidson diagonalization with overlap

---- Real-time Memory Report at c_bands before calling an iterative solver
          1678 MiB given to the printing process from OS
          1447 MiB allocation reported by mallinfo(arena+hblkhd)
        241870 MiB available memory on the node where the printing process lives
------------------
     ethr =  9.48E-12,  avg # of iterations =  1.0

     negative rho (up, down):  6.245E-03 6.245E-03

     total cpu time spent up to now is    20037.9 secs

     total energy              =   -1236.04085577 Ry
     estimated scf accuracy    <       0.00000002 Ry

     total magnetization       =    -0.00 Bohr mag/cell
     absolute magnetization    =     0.00 Bohr mag/cell

     iteration #428     ecut=    50.00 Ry     beta= 0.01
     Davidson diagonalization with overlap

---- Real-time Memory Report at c_bands before calling an iterative solver
          1678 MiB given to the printing process from OS
          1447 MiB allocation reported by mallinfo(arena+hblkhd)
        242172 MiB available memory on the node where the printing process lives
------------------
     ethr =  9.48E-12,  avg # of iterations =  1.0

     negative rho (up, down):  6.249E-03 6.249E-03

     total cpu time spent up to now is    20081.5 secs

     total energy              =   -1236.04085585 Ry
     estimated scf accuracy    <       0.00000002 Ry

     total magnetization       =    -0.00 Bohr mag/cell
     absolute magnetization    =     0.00 Bohr mag/cell

     iteration #429     ecut=    50.00 Ry     beta= 0.01
     Davidson diagonalization with overlap

---- Real-time Memory Report at c_bands before calling an iterative solver
          1678 MiB given to the printing process from OS
          1447 MiB allocation reported by mallinfo(arena+hblkhd)
        242553 MiB available memory on the node where the printing process lives
------------------
     ethr =  9.48E-12,  avg # of iterations =  1.0

     negative rho (up, down):  6.242E-03 6.242E-03

     total cpu time spent up to now is    20125.8 secs

     total energy              =   -1236.04085591 Ry
     estimated scf accuracy    <       0.00000003 Ry

     total magnetization       =     0.00 Bohr mag/cell
     absolute magnetization    =     0.00 Bohr mag/cell

     iteration #430     ecut=    50.00 Ry     beta= 0.01
     Davidson diagonalization with overlap

---- Real-time Memory Report at c_bands before calling an iterative solver
          1678 MiB given to the printing process from OS
          1447 MiB allocation reported by mallinfo(arena+hblkhd)
        241933 MiB available memory on the node where the printing process lives
------------------
     ethr =  9.48E-12,  avg # of iterations =  1.0

     negative rho (up, down):  6.240E-03 6.240E-03

     total cpu time spent up to now is    20169.7 secs

     total energy              =   -1236.04085594 Ry
     estimated scf accuracy    <       0.00000002 Ry

     total magnetization       =     0.00 Bohr mag/cell
     absolute magnetization    =     0.00 Bohr mag/cell

     iteration #431     ecut=    50.00 Ry     beta= 0.01
     Davidson diagonalization with overlap

---- Real-time Memory Report at c_bands before calling an iterative solver
          1678 MiB given to the printing process from OS
          1447 MiB allocation reported by mallinfo(arena+hblkhd)
        243210 MiB available memory on the node where the printing process lives
------------------
     ethr =  8.56E-12,  avg # of iterations =  1.0

     negative rho (up, down):  6.242E-03 6.242E-03

     total cpu time spent up to now is    20213.0 secs

     total energy              =   -1236.04085600 Ry
     estimated scf accuracy    <       0.00000002 Ry

     total magnetization       =     0.00 Bohr mag/cell
     absolute magnetization    =     0.00 Bohr mag/cell

     iteration #432     ecut=    50.00 Ry     beta= 0.01
     Davidson diagonalization with overlap

---- Real-time Memory Report at c_bands before calling an iterative solver
          1678 MiB given to the printing process from OS
          1447 MiB allocation reported by mallinfo(arena+hblkhd)
        242367 MiB available memory on the node where the printing process lives
------------------
     ethr =  8.12E-12,  avg # of iterations =  1.0

     negative rho (up, down):  6.243E-03 6.243E-03

     total cpu time spent up to now is    20256.5 secs

     total energy              =   -1236.04085605 Ry
     estimated scf accuracy    <       0.00000002 Ry

     total magnetization       =     0.00 Bohr mag/cell
     absolute magnetization    =     0.00 Bohr mag/cell

     iteration #433     ecut=    50.00 Ry     beta= 0.01
     Davidson diagonalization with overlap

---- Real-time Memory Report at c_bands before calling an iterative solver
          1678 MiB given to the printing process from OS
          1447 MiB allocation reported by mallinfo(arena+hblkhd)
        242490 MiB available memory on the node where the printing process lives
------------------
     ethr =  8.12E-12,  avg # of iterations =  1.0

     negative rho (up, down):  6.243E-03 6.243E-03

     total cpu time spent up to now is    20300.6 secs

     total energy              =   -1236.04085605 Ry
     estimated scf accuracy    <       0.00000002 Ry

     total magnetization       =     0.00 Bohr mag/cell
     absolute magnetization    =     0.00 Bohr mag/cell

     iteration #434     ecut=    50.00 Ry     beta= 0.01
     Davidson diagonalization with overlap

---- Real-time Memory Report at c_bands before calling an iterative solver
          1678 MiB given to the printing process from OS
          1447 MiB allocation reported by mallinfo(arena+hblkhd)
        242373 MiB available memory on the node where the printing process lives
------------------
     ethr =  8.11E-12,  avg # of iterations =  1.0

     negative rho (up, down):  6.243E-03 6.243E-03

     total cpu time spent up to now is    20344.0 secs

     total energy              =   -1236.04085608 Ry
     estimated scf accuracy    <       0.00000002 Ry

     total magnetization       =     0.00 Bohr mag/cell
     absolute magnetization    =     0.00 Bohr mag/cell

     iteration #435     ecut=    50.00 Ry     beta= 0.01
     Davidson diagonalization with overlap

---- Real-time Memory Report at c_bands before calling an iterative solver
          1678 MiB given to the printing process from OS
          1447 MiB allocation reported by mallinfo(arena+hblkhd)
        241805 MiB available memory on the node where the printing process lives
------------------
     ethr =  7.97E-12,  avg # of iterations =  1.0

     negative rho (up, down):  6.246E-03 6.246E-03

     total cpu time spent up to now is    20387.6 secs

     total energy              =   -1236.04085610 Ry
     estimated scf accuracy    <       0.00000002 Ry

     total magnetization       =     0.00 Bohr mag/cell
     absolute magnetization    =     0.00 Bohr mag/cell

     iteration #436     ecut=    50.00 Ry     beta= 0.01
     Davidson diagonalization with overlap

---- Real-time Memory Report at c_bands before calling an iterative solver
          1678 MiB given to the printing process from OS
          1447 MiB allocation reported by mallinfo(arena+hblkhd)
        242054 MiB available memory on the node where the printing process lives
------------------
     ethr =  7.92E-12,  avg # of iterations =  1.0

     negative rho (up, down):  6.249E-03 6.249E-03

     total cpu time spent up to now is    20431.4 secs

     total energy              =   -1236.04085612 Ry
     estimated scf accuracy    <       0.00000002 Ry

     total magnetization       =    -0.00 Bohr mag/cell
     absolute magnetization    =     0.00 Bohr mag/cell

     iteration #437     ecut=    50.00 Ry     beta= 0.01
     Davidson diagonalization with overlap

---- Real-time Memory Report at c_bands before calling an iterative solver
          1678 MiB given to the printing process from OS
          1447 MiB allocation reported by mallinfo(arena+hblkhd)
        242467 MiB available memory on the node where the printing process lives
------------------
     ethr =  7.77E-12,  avg # of iterations =  1.0

     negative rho (up, down):  6.275E-03 6.275E-03

     total cpu time spent up to now is    20475.5 secs

     total energy              =   -1236.04085647 Ry
     estimated scf accuracy    <       0.00000002 Ry

     total magnetization       =     0.00 Bohr mag/cell
     absolute magnetization    =     0.00 Bohr mag/cell

     iteration #438     ecut=    50.00 Ry     beta= 0.01
     Davidson diagonalization with overlap

---- Real-time Memory Report at c_bands before calling an iterative solver
          1678 MiB given to the printing process from OS
          1447 MiB allocation reported by mallinfo(arena+hblkhd)
        241756 MiB available memory on the node where the printing process lives
------------------
     ethr =  7.57E-12,  avg # of iterations =  2.0

     negative rho (up, down):  6.279E-03 6.279E-03

     total cpu time spent up to now is    20524.2 secs

     total energy              =   -1236.04085648 Ry
     estimated scf accuracy    <       0.00000002 Ry

     total magnetization       =     0.00 Bohr mag/cell
     absolute magnetization    =     0.00 Bohr mag/cell

     iteration #439     ecut=    50.00 Ry     beta= 0.01
     Davidson diagonalization with overlap

---- Real-time Memory Report at c_bands before calling an iterative solver
          1678 MiB given to the printing process from OS
          1447 MiB allocation reported by mallinfo(arena+hblkhd)
        241812 MiB available memory on the node where the printing process lives
------------------
     ethr =  7.57E-12,  avg # of iterations =  1.0

     negative rho (up, down):  6.278E-03 6.278E-03

     total cpu time spent up to now is    20567.8 secs

     total energy              =   -1236.04085650 Ry
     estimated scf accuracy    <       0.00000002 Ry

     total magnetization       =     0.00 Bohr mag/cell
     absolute magnetization    =     0.00 Bohr mag/cell

     iteration #440     ecut=    50.00 Ry     beta= 0.01
     Davidson diagonalization with overlap

---- Real-time Memory Report at c_bands before calling an iterative solver
          1678 MiB given to the printing process from OS
          1447 MiB allocation reported by mallinfo(arena+hblkhd)
        242101 MiB available memory on the node where the printing process lives
------------------
     ethr =  7.03E-12,  avg # of iterations =  1.0

     negative rho (up, down):  6.279E-03 6.279E-03

     total cpu time spent up to now is    20612.5 secs

     total energy              =   -1236.04085654 Ry
     estimated scf accuracy    <       0.00000002 Ry

     total magnetization       =    -0.00 Bohr mag/cell
     absolute magnetization    =     0.00 Bohr mag/cell

     iteration #441     ecut=    50.00 Ry     beta= 0.01
     Davidson diagonalization with overlap

---- Real-time Memory Report at c_bands before calling an iterative solver
          1678 MiB given to the printing process from OS
          1447 MiB allocation reported by mallinfo(arena+hblkhd)
        242164 MiB available memory on the node where the printing process lives
------------------
     ethr =  6.58E-12,  avg # of iterations =  1.0

     negative rho (up, down):  6.279E-03 6.279E-03

     total cpu time spent up to now is    20656.1 secs

     total energy              =   -1236.04085658 Ry
     estimated scf accuracy    <       0.00000002 Ry

     total magnetization       =    -0.00 Bohr mag/cell
     absolute magnetization    =     0.00 Bohr mag/cell

     iteration #442     ecut=    50.00 Ry     beta= 0.01
     Davidson diagonalization with overlap

---- Real-time Memory Report at c_bands before calling an iterative solver
          1678 MiB given to the printing process from OS
          1447 MiB allocation reported by mallinfo(arena+hblkhd)
        241851 MiB available memory on the node where the printing process lives
------------------
     ethr =  6.30E-12,  avg # of iterations =  1.0

     negative rho (up, down):  6.280E-03 6.280E-03

     total cpu time spent up to now is    20699.8 secs

     total energy              =   -1236.04085662 Ry
     estimated scf accuracy    <       0.00000002 Ry

     total magnetization       =     0.00 Bohr mag/cell
     absolute magnetization    =     0.00 Bohr mag/cell

     iteration #443     ecut=    50.00 Ry     beta= 0.01
     Davidson diagonalization with overlap

---- Real-time Memory Report at c_bands before calling an iterative solver
          1678 MiB given to the printing process from OS
          1447 MiB allocation reported by mallinfo(arena+hblkhd)
        242216 MiB available memory on the node where the printing process lives
------------------
     ethr =  6.18E-12,  avg # of iterations =  1.0

     negative rho (up, down):  6.277E-03 6.277E-03

     total cpu time spent up to now is    20744.2 secs

     total energy              =   -1236.04085661 Ry
     estimated scf accuracy    <       0.00000002 Ry

     total magnetization       =     0.00 Bohr mag/cell
     absolute magnetization    =     0.00 Bohr mag/cell

     iteration #444     ecut=    50.00 Ry     beta= 0.01
     Davidson diagonalization with overlap

---- Real-time Memory Report at c_bands before calling an iterative solver
          1678 MiB given to the printing process from OS
          1447 MiB allocation reported by mallinfo(arena+hblkhd)
        241679 MiB available memory on the node where the printing process lives
------------------
     ethr =  6.15E-12,  avg # of iterations =  1.0

     negative rho (up, down):  6.279E-03 6.279E-03

     total cpu time spent up to now is    20788.5 secs

     total energy              =   -1236.04085667 Ry
     estimated scf accuracy    <       0.00000001 Ry

     total magnetization       =     0.00 Bohr mag/cell
     absolute magnetization    =     0.00 Bohr mag/cell

     iteration #445     ecut=    50.00 Ry     beta= 0.01
     Davidson diagonalization with overlap

---- Real-time Memory Report at c_bands before calling an iterative solver
          1678 MiB given to the printing process from OS
          1447 MiB allocation reported by mallinfo(arena+hblkhd)
        241794 MiB available memory on the node where the printing process lives
------------------
     ethr =  5.95E-12,  avg # of iterations =  1.0

     negative rho (up, down):  6.293E-03 6.293E-03

     total cpu time spent up to now is    20832.2 secs

     total energy              =   -1236.04085689 Ry
     estimated scf accuracy    <       0.00000001 Ry

     total magnetization       =     0.00 Bohr mag/cell
     absolute magnetization    =     0.00 Bohr mag/cell

     iteration #446     ecut=    50.00 Ry     beta= 0.01
     Davidson diagonalization with overlap

---- Real-time Memory Report at c_bands before calling an iterative solver
          1678 MiB given to the printing process from OS
          1447 MiB allocation reported by mallinfo(arena+hblkhd)
        241786 MiB available memory on the node where the printing process lives
------------------
     ethr =  5.88E-12,  avg # of iterations =  1.0

     negative rho (up, down):  6.300E-03 6.300E-03

     total cpu time spent up to now is    20875.9 secs

     total energy              =   -1236.04085709 Ry
     estimated scf accuracy    <       0.00000001 Ry

     total magnetization       =    -0.00 Bohr mag/cell
     absolute magnetization    =     0.00 Bohr mag/cell

     iteration #447     ecut=    50.00 Ry     beta= 0.01
     Davidson diagonalization with overlap

---- Real-time Memory Report at c_bands before calling an iterative solver
          1678 MiB given to the printing process from OS
          1447 MiB allocation reported by mallinfo(arena+hblkhd)
        241724 MiB available memory on the node where the printing process lives
------------------
     ethr =  5.82E-12,  avg # of iterations =  1.0

     negative rho (up, down):  6.304E-03 6.304E-03

     total cpu time spent up to now is    20919.9 secs

     total energy              =   -1236.04085718 Ry
     estimated scf accuracy    <       0.00000001 Ry

     total magnetization       =    -0.00 Bohr mag/cell
     absolute magnetization    =     0.00 Bohr mag/cell

     iteration #448     ecut=    50.00 Ry     beta= 0.01
     Davidson diagonalization with overlap

---- Real-time Memory Report at c_bands before calling an iterative solver
          1678 MiB given to the printing process from OS
          1447 MiB allocation reported by mallinfo(arena+hblkhd)
        241730 MiB available memory on the node where the printing process lives
------------------
     ethr =  5.32E-12,  avg # of iterations =  1.0

     negative rho (up, down):  6.306E-03 6.306E-03

     total cpu time spent up to now is    20963.5 secs

     total energy              =   -1236.04085719 Ry
     estimated scf accuracy    <       0.00000001 Ry

     total magnetization       =    -0.00 Bohr mag/cell
     absolute magnetization    =     0.00 Bohr mag/cell

     iteration #449     ecut=    50.00 Ry     beta= 0.01
     Davidson diagonalization with overlap

---- Real-time Memory Report at c_bands before calling an iterative solver
          1678 MiB given to the printing process from OS
          1447 MiB allocation reported by mallinfo(arena+hblkhd)
        242166 MiB available memory on the node where the printing process lives
------------------
     ethr =  5.09E-12,  avg # of iterations =  1.0

     negative rho (up, down):  6.297E-03 6.297E-03

     total cpu time spent up to now is    21006.9 secs

     total energy              =   -1236.04085719 Ry
     estimated scf accuracy    <       0.00000001 Ry

     total magnetization       =    -0.00 Bohr mag/cell
     absolute magnetization    =     0.00 Bohr mag/cell

     iteration #450     ecut=    50.00 Ry     beta= 0.01
     Davidson diagonalization with overlap

---- Real-time Memory Report at c_bands before calling an iterative solver
          1678 MiB given to the printing process from OS
          1447 MiB allocation reported by mallinfo(arena+hblkhd)
        241854 MiB available memory on the node where the printing process lives
------------------
     ethr =  4.99E-12,  avg # of iterations =  1.0

     negative rho (up, down):  6.298E-03 6.298E-03

     total cpu time spent up to now is    21051.1 secs

     total energy              =   -1236.04085728 Ry
     estimated scf accuracy    <       0.00000001 Ry

     total magnetization       =    -0.00 Bohr mag/cell
     absolute magnetization    =     0.00 Bohr mag/cell

     iteration #451     ecut=    50.00 Ry     beta= 0.01
     Davidson diagonalization with overlap

---- Real-time Memory Report at c_bands before calling an iterative solver
          1678 MiB given to the printing process from OS
          1447 MiB allocation reported by mallinfo(arena+hblkhd)
        241912 MiB available memory on the node where the printing process lives
------------------
     ethr =  4.65E-12,  avg # of iterations =  1.0

     negative rho (up, down):  6.299E-03 6.299E-03

     Magnetic moment per site  (integrated on atomic sphere of radius R)
     atom   1 (R=0.043)  charge=  0.8920  magn= -0.0000
     atom   2 (R=0.043)  charge=  0.8927  magn= -0.0000
     atom   3 (R=0.043)  charge=  0.8928  magn=  0.0000
     atom   4 (R=0.043)  charge=  0.8926  magn= -0.0000
     atom   5 (R=0.043)  charge=  0.8927  magn= -0.0000
     atom   6 (R=0.043)  charge=  0.8915  magn=  0.0000
     atom   7 (R=0.043)  charge=  0.8915  magn=  0.0000
     atom   8 (R=0.043)  charge=  0.8929  magn= -0.0000
     atom   9 (R=0.043)  charge=  0.8927  magn= -0.0000
     atom  10 (R=0.043)  charge=  0.8922  magn=  0.0000
     atom  11 (R=0.043)  charge=  0.8920  magn=  0.0000
     atom  12 (R=0.043)  charge=  0.8915  magn= -0.0000
     atom  13 (R=0.043)  charge=  0.8920  magn= -0.0000
     atom  14 (R=0.043)  charge=  0.8923  magn=  0.0000
     atom  15 (R=0.043)  charge=  0.8911  magn= -0.0000
     atom  16 (R=0.043)  charge=  0.8923  magn= -0.0000
     atom  17 (R=0.043)  charge=  0.8930  magn=  0.0000
     atom  18 (R=0.043)  charge=  0.8927  magn= -0.0000
     atom  19 (R=0.043)  charge=  0.8921  magn=  0.0000
     atom  20 (R=0.043)  charge=  0.8911  magn=  0.0000
     atom  21 (R=0.043)  charge=  0.8911  magn=  0.0000
     atom  22 (R=0.043)  charge=  0.8927  magn= -0.0000
     atom  23 (R=0.043)  charge=  0.8928  magn= -0.0000
     atom  24 (R=0.043)  charge=  0.8926  magn=  0.0000
     atom  25 (R=0.043)  charge=  0.8927  magn= -0.0000
     atom  26 (R=0.043)  charge=  0.8923  magn= -0.0000
     atom  27 (R=0.043)  charge=  0.8921  magn= -0.0000
     atom  28 (R=0.043)  charge=  0.8926  magn=  0.0000
     atom  29 (R=0.043)  charge=  0.8921  magn=  0.0000
     atom  30 (R=0.043)  charge=  0.8928  magn= -0.0000
     atom  31 (R=0.043)  charge=  0.8929  magn= -0.0000
     atom  32 (R=0.043)  charge=  2.9323  magn= -0.0000
     atom  33 (R=0.043)  charge=  2.9327  magn=  0.0000
     atom  34 (R=0.043)  charge=  2.9331  magn=  0.0000
     atom  35 (R=0.043)  charge=  2.9326  magn=  0.0000
     atom  36 (R=0.043)  charge=  2.9331  magn=  0.0000
     atom  37 (R=0.043)  charge=  2.9326  magn=  0.0000
     atom  38 (R=0.043)  charge=  2.9332  magn=  0.0000
     atom  39 (R=0.043)  charge=  2.9329  magn= -0.0000
     atom  40 (R=0.043)  charge=  2.9327  magn= -0.0000
     atom  41 (R=0.043)  charge=  2.9327  magn=  0.0000
     atom  42 (R=0.043)  charge=  2.9327  magn=  0.0000
     atom  43 (R=0.043)  charge=  2.9326  magn=  0.0000
     atom  44 (R=0.043)  charge=  2.9335  magn=  0.0000
     atom  45 (R=0.043)  charge=  2.9328  magn= -0.0000
     atom  46 (R=0.043)  charge=  2.9332  magn=  0.0000
     atom  47 (R=0.043)  charge=  2.9330  magn= -0.0000
     atom  48 (R=0.043)  charge=  2.9335  magn= -0.0000
     atom  49 (R=0.043)  charge=  2.9332  magn= -0.0000
     atom  50 (R=0.043)  charge=  2.9326  magn=  0.0000
     atom  51 (R=0.043)  charge=  2.9326  magn=  0.0000
     atom  52 (R=0.043)  charge=  2.9327  magn= -0.0000
     atom  53 (R=0.043)  charge=  2.9333  magn= -0.0000
     atom  54 (R=0.043)  charge=  2.9326  magn=  0.0000
     atom  55 (R=0.043)  charge=  2.9335  magn=  0.0000
     atom  56 (R=0.043)  charge=  2.9333  magn=  0.0000
     atom  57 (R=0.043)  charge=  2.9323  magn= -0.0000
     atom  58 (R=0.043)  charge=  2.9323  magn=  0.0000
     atom  59 (R=0.043)  charge=  2.9325  magn=  0.0000
     atom  60 (R=0.043)  charge=  2.9327  magn=  0.0000
     atom  61 (R=0.043)  charge=  2.9330  magn= -0.0000
     atom  62 (R=0.043)  charge=  2.9327  magn=  0.0000

     total cpu time spent up to now is    21093.2 secs

     End of self-consistent calculation

 ------ SPIN UP ------------


          k = 0.0000 0.0000 0.0000 (320189 PWs)   bands (ev):

   -23.1578 -22.5844 -22.5843 -22.5803 -22.5781 -22.5780 -22.5772 -21.5299
   -21.5292 -21.5292 -21.5251 -21.5251 -21.5227 -21.0870 -21.0865 -21.0865
   -21.0852 -21.0848 -21.0848 -20.2538 -20.2535 -20.2535 -20.2514 -20.2513
   -20.2510 -20.0793 -20.0793 -20.0772 -20.0763 -20.0755 -20.0754 -14.3222
   -14.3222 -14.3221 -14.3203 -14.3201 -14.3201 -13.5537 -13.5527 -13.5525
   -13.5525 -13.5510 -13.5509 -13.0015 -13.0015 -13.0012 -12.9981 -12.9980
   -12.9980 -12.0903 -12.0903 -12.0890 -12.0885 -12.0884 -12.0882 -11.8417
   -11.8411 -11.8410 -11.8400 -11.8400 -11.8397 -10.7939 -10.4148 -10.4147
   -10.4145 -10.4131 -10.4130 -10.4130 -10.0226 -10.0225 -10.0194 -10.0175
   -10.0174 -10.0164  -9.8598  -9.8582  -9.8582  -9.8550  -9.8550  -9.8545
    -9.7590  -9.7590  -9.7584  -9.7524  -9.7524  -9.7518  -9.4530  -9.4529
    -9.4511  -9.4504  -9.4504  -9.4468  -8.5804  -8.5798  -8.5798  -8.5764
    -8.5764  -8.5745  -8.2726  -8.2688  -8.2675  -8.2675  -8.2659  -8.2658
    -7.9537  -7.9536  -7.9536  -7.9527  -7.9519  -7.9519  -7.3064  -7.3064
    -6.7012  -6.7011  -6.7011  -6.6993  -6.6993  -6.6992  -6.4418  -6.4418
    -6.4399  -6.4393  -6.4381  -6.4381  -1.1833  -1.1065  -1.1064  -1.1064
    -1.1045  -1.1045  -1.1042  -0.9066  -0.9066  -0.9040  -0.9040  -0.9038
    -0.9032  -0.4280  -0.2771  -0.1980  -0.1879  -0.1878  -0.1877  -0.1866
    -0.1865  -0.1862   0.0303   0.1661   0.4598   0.4598   0.4602   0.4650
     0.4650   0.4656   0.5188   0.5195   0.5196   0.5198   0.5201   0.5202

     occupation numbers 
     1.0000   1.0000   1.0000   1.0000   1.0000   1.0000   1.0000   1.0000
     1.0000   1.0000   1.0000   1.0000   1.0000   1.0000   1.0000   1.0000
     1.0000   1.0000   1.0000   1.0000   1.0000   1.0000   1.0000   1.0000
     1.0000   1.0000   1.0000   1.0000   1.0000   1.0000   1.0000   1.0000
     1.0000   1.0000   1.0000   1.0000   1.0000   1.0000   1.0000   1.0000
     1.0000   1.0000   1.0000   1.0000   1.0000   1.0000   1.0000   1.0000
     1.0000   1.0000   1.0000   1.0000   1.0000   1.0000   1.0000   1.0000
     1.0000   1.0000   1.0000   1.0000   1.0000   1.0000   1.0000   1.0000
     1.0000   1.0000   1.0000   1.0000   1.0000   1.0000   1.0000   1.0000
     1.0000   1.0000   1.0000   1.0000   1.0000   1.0000   1.0000   1.0000
     1.0000   1.0000   1.0000   1.0000   1.0000   1.0000   1.0000   1.0000
     1.0000   1.0000   1.0000   1.0000   1.0000   1.0000   1.0000   1.0000
     1.0000   1.0000   1.0000   1.0000   1.0000   1.0000   1.0000   1.0000
     1.0000   1.0000   1.0000   1.0000   1.0000   1.0000   1.0000   1.0000
     1.0000   1.0000   1.0000   1.0000   1.0000   1.0000   1.0000   1.0000
     1.0000   1.0000   1.0000   1.0000   0.0000   0.0000   0.0000   0.0000
     0.0000   0.0000   0.0000   0.0000   0.0000   0.0000   0.0000   0.0000
     0.0000   0.0000   0.0000   0.0000   0.0000   0.0000   0.0000   0.0000
     0.0000   0.0000   0.0000   0.0000   0.0000   0.0000   0.0000   0.0000
     0.0000   0.0000   0.0000   0.0000   0.0000   0.0000   0.0000   0.0000

          k = 0.0000-0.5774 0.0000 (319994 PWs)   bands (ev):

   -23.0118 -23.0100 -22.7239 -22.7201 -22.1697 -22.1689 -22.1654 -22.1653
   -21.9053 -21.9047 -21.4167 -21.4165 -21.4067 -21.4064 -20.7856 -20.7835
   -20.7579 -20.7573 -20.6500 -20.6478 -20.5926 -20.5922 -20.3822 -20.3804
   -20.2800 -20.1741 -20.1737 -20.0618 -20.0587 -19.8148 -19.8143 -14.5142
   -14.1860 -14.1842 -14.1086 -14.1056 -13.8974 -13.8956 -13.8177 -13.8173
   -13.6633 -13.6629 -13.3870 -13.3867 -13.3465 -13.3444 -12.8842 -12.8835
   -12.5783 -12.5780 -12.4178 -12.4175 -12.0148 -12.0146 -11.4796 -11.4795
   -11.3686 -11.3662 -11.2834 -11.2827 -11.0781 -11.0777 -10.8753 -10.8751
   -10.6189 -10.6182 -10.5962 -10.5940 -10.4272 -10.4268 -10.2985 -10.2971
   -10.2261 -10.2237 -10.2112 -10.2082 -10.0731 -10.0724  -9.9300  -9.7939
    -9.7922  -9.4616  -9.4612  -9.4578  -9.4575  -9.3986  -9.3980  -9.1013
    -9.1000  -9.0692  -9.0688  -9.0640  -9.0628  -8.9506  -8.9483  -8.8026
    -8.8018  -8.4221  -8.4219  -8.4102  -8.4098  -8.1158  -8.1133  -7.9335
    -7.9315  -7.5880  -7.5850  -7.5178  -7.5160  -7.4822  -7.4818  -7.3113
    -7.3093  -7.2352  -7.2349  -6.9040  -6.9020  -6.7363  -6.5901  -6.5898
    -6.4025  -6.4002  -5.9989  -5.9986  -1.3229  -1.3226  -1.2296  -1.1636
    -1.1630  -0.9249  -0.9241  -0.8957  -0.8939  -0.8837  -0.8835  -0.4700
    -0.4679  -0.4261  -0.4260  -0.2100  -0.2098  -0.1883  -0.1880  -0.0310
    -0.0308   0.0011   0.0031   0.0450   0.0451   0.1867   0.1871   0.2770
     0.2772   0.2865   0.2868   0.4079   0.4081   0.4608   0.4610   0.5297

     occupation numbers 
     1.0000   1.0000   1.0000   1.0000   1.0000   1.0000   1.0000   1.0000
     1.0000   1.0000   1.0000   1.0000   1.0000   1.0000   1.0000   1.0000
     1.0000   1.0000   1.0000   1.0000   1.0000   1.0000   1.0000   1.0000
     1.0000   1.0000   1.0000   1.0000   1.0000   1.0000   1.0000   1.0000
     1.0000   1.0000   1.0000   1.0000   1.0000   1.0000   1.0000   1.0000
     1.0000   1.0000   1.0000   1.0000   1.0000   1.0000   1.0000   1.0000
     1.0000   1.0000   1.0000   1.0000   1.0000   1.0000   1.0000   1.0000
     1.0000   1.0000   1.0000   1.0000   1.0000   1.0000   1.0000   1.0000
     1.0000   1.0000   1.0000   1.0000   1.0000   1.0000   1.0000   1.0000
     1.0000   1.0000   1.0000   1.0000   1.0000   1.0000   1.0000   1.0000
     1.0000   1.0000   1.0000   1.0000   1.0000   1.0000   1.0000   1.0000
     1.0000   1.0000   1.0000   1.0000   1.0000   1.0000   1.0000   1.0000
     1.0000   1.0000   1.0000   1.0000   1.0000   1.0000   1.0000   1.0000
     1.0000   1.0000   1.0000   1.0000   1.0000   1.0000   1.0000   1.0000
     1.0000   1.0000   1.0000   1.0000   1.0000   1.0000   1.0000   1.0000
     1.0000   1.0000   1.0000   1.0000   0.0000   0.0000   0.0000   0.0000
     0.0000   0.0000   0.0000   0.0000   0.0000   0.0000   0.0000   0.0000
     0.0000   0.0000   0.0000   0.0000   0.0000   0.0000   0.0000   0.0000
     0.0000   0.0000   0.0000   0.0000   0.0000   0.0000   0.0000   0.0000
     0.0000   0.0000   0.0000   0.0000   0.0000   0.0000   0.0000   0.0000

          k =-0.5000-0.2887 0.0000 (319994 PWs)   bands (ev):

   -23.0117 -23.0101 -22.7239 -22.7201 -22.1698 -22.1689 -22.1654 -22.1653
   -21.9053 -21.9047 -21.4167 -21.4164 -21.4067 -21.4064 -20.7856 -20.7835
   -20.7579 -20.7573 -20.6501 -20.6478 -20.5926 -20.5922 -20.3822 -20.3804
   -20.2799 -20.1741 -20.1737 -20.0618 -20.0587 -19.8149 -19.8143 -14.5142
   -14.1860 -14.1842 -14.1086 -14.1056 -13.8975 -13.8955 -13.8177 -13.8172
   -13.6633 -13.6629 -13.3870 -13.3867 -13.3465 -13.3444 -12.8842 -12.8835
   -12.5783 -12.5780 -12.4177 -12.4175 -12.0148 -12.0146 -11.4796 -11.4795
   -11.3686 -11.3662 -11.2834 -11.2827 -11.0781 -11.0777 -10.8753 -10.8751
   -10.6189 -10.6182 -10.5962 -10.5940 -10.4272 -10.4268 -10.2985 -10.2971
   -10.2261 -10.2237 -10.2112 -10.2082 -10.0731 -10.0724  -9.9300  -9.7939
    -9.7922  -9.4616  -9.4612  -9.4578  -9.4575  -9.3986  -9.3980  -9.1013
    -9.1000  -9.0692  -9.0688  -9.0640  -9.0628  -8.9506  -8.9483  -8.8026
    -8.8018  -8.4221  -8.4219  -8.4102  -8.4098  -8.1158  -8.1133  -7.9335
    -7.9316  -7.5879  -7.5851  -7.5178  -7.5160  -7.4822  -7.4818  -7.3114
    -7.3093  -7.2352  -7.2349  -6.9040  -6.9020  -6.7363  -6.5901  -6.5898
    -6.4025  -6.4002  -5.9989  -5.9986  -1.3229  -1.3226  -1.2296  -1.1636
    -1.1630  -0.9249  -0.9241  -0.8957  -0.8939  -0.8837  -0.8835  -0.4700
    -0.4678  -0.4261  -0.4260  -0.2100  -0.2098  -0.1883  -0.1880  -0.0311
    -0.0307   0.0011   0.0031   0.0450   0.0451   0.1867   0.1871   0.2770
     0.2772   0.2865   0.2868   0.4079   0.4081   0.4608   0.4610   0.5297

     occupation numbers 
     1.0000   1.0000   1.0000   1.0000   1.0000   1.0000   1.0000   1.0000
     1.0000   1.0000   1.0000   1.0000   1.0000   1.0000   1.0000   1.0000
     1.0000   1.0000   1.0000   1.0000   1.0000   1.0000   1.0000   1.0000
     1.0000   1.0000   1.0000   1.0000   1.0000   1.0000   1.0000   1.0000
     1.0000   1.0000   1.0000   1.0000   1.0000   1.0000   1.0000   1.0000
     1.0000   1.0000   1.0000   1.0000   1.0000   1.0000   1.0000   1.0000
     1.0000   1.0000   1.0000   1.0000   1.0000   1.0000   1.0000   1.0000
     1.0000   1.0000   1.0000   1.0000   1.0000   1.0000   1.0000   1.0000
     1.0000   1.0000   1.0000   1.0000   1.0000   1.0000   1.0000   1.0000
     1.0000   1.0000   1.0000   1.0000   1.0000   1.0000   1.0000   1.0000
     1.0000   1.0000   1.0000   1.0000   1.0000   1.0000   1.0000   1.0000
     1.0000   1.0000   1.0000   1.0000   1.0000   1.0000   1.0000   1.0000
     1.0000   1.0000   1.0000   1.0000   1.0000   1.0000   1.0000   1.0000
     1.0000   1.0000   1.0000   1.0000   1.0000   1.0000   1.0000   1.0000
     1.0000   1.0000   1.0000   1.0000   1.0000   1.0000   1.0000   1.0000
     1.0000   1.0000   1.0000   1.0000   0.0000   0.0000   0.0000   0.0000
     0.0000   0.0000   0.0000   0.0000   0.0000   0.0000   0.0000   0.0000
     0.0000   0.0000   0.0000   0.0000   0.0000   0.0000   0.0000   0.0000
     0.0000   0.0000   0.0000   0.0000   0.0000   0.0000   0.0000   0.0000
     0.0000   0.0000   0.0000   0.0000   0.0000   0.0000   0.0000   0.0000

          k =-0.5000-0.8660 0.0000 (319994 PWs)   bands (ev):

   -23.0118 -23.0100 -22.7239 -22.7201 -22.1697 -22.1689 -22.1655 -22.1653
   -21.9053 -21.9047 -21.4167 -21.4164 -21.4067 -21.4064 -20.7856 -20.7835
   -20.7579 -20.7573 -20.6501 -20.6478 -20.5926 -20.5922 -20.3822 -20.3804
   -20.2800 -20.1741 -20.1737 -20.0618 -20.0587 -19.8149 -19.8143 -14.5142
   -14.1859 -14.1842 -14.1086 -14.1056 -13.8975 -13.8955 -13.8177 -13.8173
   -13.6633 -13.6629 -13.3870 -13.3867 -13.3465 -13.3444 -12.8842 -12.8835
   -12.5783 -12.5780 -12.4178 -12.4175 -12.0148 -12.0146 -11.4796 -11.4795
   -11.3686 -11.3662 -11.2834 -11.2827 -11.0781 -11.0777 -10.8753 -10.8751
   -10.6189 -10.6182 -10.5962 -10.5940 -10.4272 -10.4268 -10.2985 -10.2971
   -10.2261 -10.2237 -10.2112 -10.2082 -10.0731 -10.0724  -9.9300  -9.7940
    -9.7921  -9.4616  -9.4612  -9.4579  -9.4575  -9.3986  -9.3980  -9.1013
    -9.1000  -9.0692  -9.0688  -9.0640  -9.0628  -8.9506  -8.9483  -8.8026
    -8.8018  -8.4221  -8.4219  -8.4102  -8.4098  -8.1158  -8.1133  -7.9335
    -7.9316  -7.5880  -7.5850  -7.5178  -7.5160  -7.4822  -7.4818  -7.3114
    -7.3093  -7.2352  -7.2349  -6.9039  -6.9020  -6.7363  -6.5901  -6.5898
    -6.4025  -6.4002  -5.9989  -5.9986  -1.3229  -1.3226  -1.2296  -1.1636
    -1.1630  -0.9249  -0.9241  -0.8956  -0.8940  -0.8837  -0.8835  -0.4701
    -0.4678  -0.4261  -0.4261  -0.2100  -0.2098  -0.1883  -0.1880  -0.0310
    -0.0308   0.0011   0.0031   0.0450   0.0451   0.1867   0.1871   0.2770
     0.2772   0.2866   0.2868   0.4079   0.4081   0.4608   0.4610   0.5296

     occupation numbers 
     1.0000   1.0000   1.0000   1.0000   1.0000   1.0000   1.0000   1.0000
     1.0000   1.0000   1.0000   1.0000   1.0000   1.0000   1.0000   1.0000
     1.0000   1.0000   1.0000   1.0000   1.0000   1.0000   1.0000   1.0000
     1.0000   1.0000   1.0000   1.0000   1.0000   1.0000   1.0000   1.0000
     1.0000   1.0000   1.0000   1.0000   1.0000   1.0000   1.0000   1.0000
     1.0000   1.0000   1.0000   1.0000   1.0000   1.0000   1.0000   1.0000
     1.0000   1.0000   1.0000   1.0000   1.0000   1.0000   1.0000   1.0000
     1.0000   1.0000   1.0000   1.0000   1.0000   1.0000   1.0000   1.0000
     1.0000   1.0000   1.0000   1.0000   1.0000   1.0000   1.0000   1.0000
     1.0000   1.0000   1.0000   1.0000   1.0000   1.0000   1.0000   1.0000
     1.0000   1.0000   1.0000   1.0000   1.0000   1.0000   1.0000   1.0000
     1.0000   1.0000   1.0000   1.0000   1.0000   1.0000   1.0000   1.0000
     1.0000   1.0000   1.0000   1.0000   1.0000   1.0000   1.0000   1.0000
     1.0000   1.0000   1.0000   1.0000   1.0000   1.0000   1.0000   1.0000
     1.0000   1.0000   1.0000   1.0000   1.0000   1.0000   1.0000   1.0000
     1.0000   1.0000   1.0000   1.0000   0.0000   0.0000   0.0000   0.0000
     0.0000   0.0000   0.0000   0.0000   0.0000   0.0000   0.0000   0.0000
     0.0000   0.0000   0.0000   0.0000   0.0000   0.0000   0.0000   0.0000
     0.0000   0.0000   0.0000   0.0000   0.0000   0.0000   0.0000   0.0000
     0.0000   0.0000   0.0000   0.0000   0.0000   0.0000   0.0000   0.0000

 ------ SPIN DOWN ----------


          k = 0.0000 0.0000 0.0000 (320189 PWs)   bands (ev):

   -23.1578 -22.5844 -22.5843 -22.5803 -22.5781 -22.5780 -22.5772 -21.5299
   -21.5292 -21.5292 -21.5251 -21.5251 -21.5227 -21.0870 -21.0865 -21.0865
   -21.0852 -21.0848 -21.0848 -20.2538 -20.2535 -20.2535 -20.2514 -20.2513
   -20.2510 -20.0793 -20.0793 -20.0772 -20.0763 -20.0755 -20.0754 -14.3222
   -14.3222 -14.3221 -14.3203 -14.3201 -14.3201 -13.5537 -13.5527 -13.5525
   -13.5525 -13.5510 -13.5509 -13.0015 -13.0015 -13.0012 -12.9981 -12.9980
   -12.9980 -12.0903 -12.0903 -12.0890 -12.0885 -12.0884 -12.0882 -11.8417
   -11.8411 -11.8410 -11.8400 -11.8400 -11.8397 -10.7939 -10.4148 -10.4147
   -10.4145 -10.4131 -10.4130 -10.4130 -10.0226 -10.0225 -10.0194 -10.0175
   -10.0174 -10.0164  -9.8598  -9.8582  -9.8582  -9.8550  -9.8550  -9.8545
    -9.7590  -9.7590  -9.7584  -9.7524  -9.7524  -9.7518  -9.4530  -9.4529
    -9.4511  -9.4504  -9.4504  -9.4468  -8.5804  -8.5798  -8.5798  -8.5764
    -8.5764  -8.5745  -8.2726  -8.2688  -8.2675  -8.2675  -8.2659  -8.2658
    -7.9537  -7.9536  -7.9536  -7.9527  -7.9519  -7.9519  -7.3064  -7.3064
    -6.7012  -6.7011  -6.7011  -6.6993  -6.6993  -6.6992  -6.4418  -6.4418
    -6.4399  -6.4393  -6.4381  -6.4381  -1.1833  -1.1065  -1.1064  -1.1064
    -1.1045  -1.1045  -1.1042  -0.9066  -0.9066  -0.9040  -0.9040  -0.9038
    -0.9032  -0.4280  -0.2771  -0.1980  -0.1879  -0.1878  -0.1877  -0.1866
    -0.1865  -0.1862   0.0303   0.1661   0.4598   0.4598   0.4602   0.4650
     0.4650   0.4656   0.5188   0.5195   0.5196   0.5198   0.5201   0.5202

     occupation numbers 
     1.0000   1.0000   1.0000   1.0000   1.0000   1.0000   1.0000   1.0000
     1.0000   1.0000   1.0000   1.0000   1.0000   1.0000   1.0000   1.0000
     1.0000   1.0000   1.0000   1.0000   1.0000   1.0000   1.0000   1.0000
     1.0000   1.0000   1.0000   1.0000   1.0000   1.0000   1.0000   1.0000
     1.0000   1.0000   1.0000   1.0000   1.0000   1.0000   1.0000   1.0000
     1.0000   1.0000   1.0000   1.0000   1.0000   1.0000   1.0000   1.0000
     1.0000   1.0000   1.0000   1.0000   1.0000   1.0000   1.0000   1.0000
     1.0000   1.0000   1.0000   1.0000   1.0000   1.0000   1.0000   1.0000
     1.0000   1.0000   1.0000   1.0000   1.0000   1.0000   1.0000   1.0000
     1.0000   1.0000   1.0000   1.0000   1.0000   1.0000   1.0000   1.0000
     1.0000   1.0000   1.0000   1.0000   1.0000   1.0000   1.0000   1.0000
     1.0000   1.0000   1.0000   1.0000   1.0000   1.0000   1.0000   1.0000
     1.0000   1.0000   1.0000   1.0000   1.0000   1.0000   1.0000   1.0000
     1.0000   1.0000   1.0000   1.0000   1.0000   1.0000   1.0000   1.0000
     1.0000   1.0000   1.0000   1.0000   1.0000   1.0000   1.0000   1.0000
     1.0000   1.0000   1.0000   1.0000   0.0000   0.0000   0.0000   0.0000
     0.0000   0.0000   0.0000   0.0000   0.0000   0.0000   0.0000   0.0000
     0.0000   0.0000   0.0000   0.0000   0.0000   0.0000   0.0000   0.0000
     0.0000   0.0000   0.0000   0.0000   0.0000   0.0000   0.0000   0.0000
     0.0000   0.0000   0.0000   0.0000   0.0000   0.0000   0.0000   0.0000

          k = 0.0000-0.5774 0.0000 (319994 PWs)   bands (ev):

   -23.0118 -23.0100 -22.7239 -22.7201 -22.1697 -22.1689 -22.1654 -22.1653
   -21.9053 -21.9047 -21.4167 -21.4165 -21.4067 -21.4064 -20.7856 -20.7835
   -20.7579 -20.7573 -20.6500 -20.6478 -20.5926 -20.5922 -20.3822 -20.3804
   -20.2800 -20.1741 -20.1737 -20.0618 -20.0587 -19.8148 -19.8143 -14.5142
   -14.1860 -14.1842 -14.1086 -14.1056 -13.8974 -13.8956 -13.8177 -13.8173
   -13.6633 -13.6629 -13.3870 -13.3867 -13.3465 -13.3444 -12.8842 -12.8835
   -12.5783 -12.5780 -12.4178 -12.4175 -12.0148 -12.0146 -11.4796 -11.4795
   -11.3686 -11.3662 -11.2834 -11.2827 -11.0781 -11.0777 -10.8753 -10.8751
   -10.6189 -10.6182 -10.5962 -10.5940 -10.4272 -10.4268 -10.2985 -10.2971
   -10.2261 -10.2237 -10.2112 -10.2082 -10.0731 -10.0724  -9.9300  -9.7939
    -9.7922  -9.4616  -9.4612  -9.4578  -9.4575  -9.3986  -9.3980  -9.1013
    -9.1000  -9.0692  -9.0688  -9.0640  -9.0628  -8.9506  -8.9483  -8.8026
    -8.8018  -8.4221  -8.4219  -8.4102  -8.4098  -8.1158  -8.1133  -7.9335
    -7.9315  -7.5880  -7.5850  -7.5178  -7.5160  -7.4822  -7.4818  -7.3113
    -7.3093  -7.2352  -7.2349  -6.9040  -6.9020  -6.7363  -6.5901  -6.5898
    -6.4025  -6.4002  -5.9989  -5.9986  -1.3229  -1.3226  -1.2296  -1.1636
    -1.1630  -0.9249  -0.9241  -0.8957  -0.8939  -0.8837  -0.8835  -0.4700
    -0.4679  -0.4261  -0.4260  -0.2100  -0.2098  -0.1883  -0.1880  -0.0310
    -0.0308   0.0011   0.0031   0.0450   0.0451   0.1867   0.1871   0.2770
     0.2772   0.2865   0.2868   0.4079   0.4081   0.4608   0.4610   0.5297

     occupation numbers 
     1.0000   1.0000   1.0000   1.0000   1.0000   1.0000   1.0000   1.0000
     1.0000   1.0000   1.0000   1.0000   1.0000   1.0000   1.0000   1.0000
     1.0000   1.0000   1.0000   1.0000   1.0000   1.0000   1.0000   1.0000
     1.0000   1.0000   1.0000   1.0000   1.0000   1.0000   1.0000   1.0000
     1.0000   1.0000   1.0000   1.0000   1.0000   1.0000   1.0000   1.0000
     1.0000   1.0000   1.0000   1.0000   1.0000   1.0000   1.0000   1.0000
     1.0000   1.0000   1.0000   1.0000   1.0000   1.0000   1.0000   1.0000
     1.0000   1.0000   1.0000   1.0000   1.0000   1.0000   1.0000   1.0000
     1.0000   1.0000   1.0000   1.0000   1.0000   1.0000   1.0000   1.0000
     1.0000   1.0000   1.0000   1.0000   1.0000   1.0000   1.0000   1.0000
     1.0000   1.0000   1.0000   1.0000   1.0000   1.0000   1.0000   1.0000
     1.0000   1.0000   1.0000   1.0000   1.0000   1.0000   1.0000   1.0000
     1.0000   1.0000   1.0000   1.0000   1.0000   1.0000   1.0000   1.0000
     1.0000   1.0000   1.0000   1.0000   1.0000   1.0000   1.0000   1.0000
     1.0000   1.0000   1.0000   1.0000   1.0000   1.0000   1.0000   1.0000
     1.0000   1.0000   1.0000   1.0000   0.0000   0.0000   0.0000   0.0000
     0.0000   0.0000   0.0000   0.0000   0.0000   0.0000   0.0000   0.0000
     0.0000   0.0000   0.0000   0.0000   0.0000   0.0000   0.0000   0.0000
     0.0000   0.0000   0.0000   0.0000   0.0000   0.0000   0.0000   0.0000
     0.0000   0.0000   0.0000   0.0000   0.0000   0.0000   0.0000   0.0000

          k =-0.5000-0.2887 0.0000 (319994 PWs)   bands (ev):

   -23.0117 -23.0101 -22.7239 -22.7201 -22.1698 -22.1689 -22.1654 -22.1653
   -21.9053 -21.9047 -21.4167 -21.4164 -21.4067 -21.4064 -20.7856 -20.7835
   -20.7579 -20.7573 -20.6501 -20.6478 -20.5926 -20.5922 -20.3822 -20.3804
   -20.2799 -20.1741 -20.1737 -20.0618 -20.0587 -19.8148 -19.8143 -14.5142
   -14.1860 -14.1842 -14.1086 -14.1056 -13.8975 -13.8955 -13.8177 -13.8172
   -13.6633 -13.6629 -13.3870 -13.3867 -13.3465 -13.3444 -12.8842 -12.8835
   -12.5783 -12.5780 -12.4177 -12.4175 -12.0148 -12.0146 -11.4796 -11.4795
   -11.3686 -11.3662 -11.2834 -11.2827 -11.0781 -11.0777 -10.8753 -10.8751
   -10.6189 -10.6182 -10.5962 -10.5940 -10.4272 -10.4268 -10.2985 -10.2971
   -10.2261 -10.2237 -10.2112 -10.2082 -10.0731 -10.0724  -9.9300  -9.7939
    -9.7922  -9.4616  -9.4612  -9.4578  -9.4575  -9.3986  -9.3980  -9.1013
    -9.1000  -9.0692  -9.0688  -9.0640  -9.0628  -8.9506  -8.9483  -8.8026
    -8.8018  -8.4221  -8.4219  -8.4102  -8.4098  -8.1158  -8.1133  -7.9335
    -7.9316  -7.5879  -7.5851  -7.5178  -7.5160  -7.4822  -7.4818  -7.3114
    -7.3093  -7.2352  -7.2349  -6.9040  -6.9020  -6.7363  -6.5901  -6.5898
    -6.4025  -6.4002  -5.9989  -5.9986  -1.3229  -1.3226  -1.2296  -1.1636
    -1.1630  -0.9249  -0.9241  -0.8957  -0.8939  -0.8837  -0.8835  -0.4700
    -0.4678  -0.4261  -0.4260  -0.2100  -0.2098  -0.1883  -0.1880  -0.0311
    -0.0307   0.0011   0.0031   0.0450   0.0451   0.1867   0.1871   0.2770
     0.2772   0.2865   0.2868   0.4079   0.4081   0.4608   0.4610   0.5297

     occupation numbers 
     1.0000   1.0000   1.0000   1.0000   1.0000   1.0000   1.0000   1.0000
     1.0000   1.0000   1.0000   1.0000   1.0000   1.0000   1.0000   1.0000
     1.0000   1.0000   1.0000   1.0000   1.0000   1.0000   1.0000   1.0000
     1.0000   1.0000   1.0000   1.0000   1.0000   1.0000   1.0000   1.0000
     1.0000   1.0000   1.0000   1.0000   1.0000   1.0000   1.0000   1.0000
     1.0000   1.0000   1.0000   1.0000   1.0000   1.0000   1.0000   1.0000
     1.0000   1.0000   1.0000   1.0000   1.0000   1.0000   1.0000   1.0000
     1.0000   1.0000   1.0000   1.0000   1.0000   1.0000   1.0000   1.0000
     1.0000   1.0000   1.0000   1.0000   1.0000   1.0000   1.0000   1.0000
     1.0000   1.0000   1.0000   1.0000   1.0000   1.0000   1.0000   1.0000
     1.0000   1.0000   1.0000   1.0000   1.0000   1.0000   1.0000   1.0000
     1.0000   1.0000   1.0000   1.0000   1.0000   1.0000   1.0000   1.0000
     1.0000   1.0000   1.0000   1.0000   1.0000   1.0000   1.0000   1.0000
     1.0000   1.0000   1.0000   1.0000   1.0000   1.0000   1.0000   1.0000
     1.0000   1.0000   1.0000   1.0000   1.0000   1.0000   1.0000   1.0000
     1.0000   1.0000   1.0000   1.0000   0.0000   0.0000   0.0000   0.0000
     0.0000   0.0000   0.0000   0.0000   0.0000   0.0000   0.0000   0.0000
     0.0000   0.0000   0.0000   0.0000   0.0000   0.0000   0.0000   0.0000
     0.0000   0.0000   0.0000   0.0000   0.0000   0.0000   0.0000   0.0000
     0.0000   0.0000   0.0000   0.0000   0.0000   0.0000   0.0000   0.0000

          k =-0.5000-0.8660 0.0000 (319994 PWs)   bands (ev):

   -23.0118 -23.0100 -22.7239 -22.7201 -22.1697 -22.1689 -22.1655 -22.1653
   -21.9053 -21.9047 -21.4167 -21.4164 -21.4067 -21.4064 -20.7856 -20.7835
   -20.7579 -20.7573 -20.6501 -20.6478 -20.5926 -20.5922 -20.3822 -20.3804
   -20.2800 -20.1741 -20.1737 -20.0618 -20.0587 -19.8149 -19.8143 -14.5142
   -14.1859 -14.1842 -14.1086 -14.1056 -13.8975 -13.8955 -13.8177 -13.8173
   -13.6633 -13.6629 -13.3870 -13.3867 -13.3465 -13.3444 -12.8842 -12.8835
   -12.5783 -12.5780 -12.4178 -12.4175 -12.0148 -12.0146 -11.4796 -11.4795
   -11.3686 -11.3662 -11.2834 -11.2827 -11.0781 -11.0777 -10.8753 -10.8751
   -10.6189 -10.6182 -10.5962 -10.5940 -10.4272 -10.4268 -10.2985 -10.2971
   -10.2261 -10.2237 -10.2112 -10.2082 -10.0731 -10.0724  -9.9300  -9.7940
    -9.7921  -9.4616  -9.4612  -9.4579  -9.4575  -9.3986  -9.3980  -9.1013
    -9.1000  -9.0692  -9.0688  -9.0640  -9.0628  -8.9506  -8.9483  -8.8026
    -8.8018  -8.4221  -8.4219  -8.4102  -8.4098  -8.1158  -8.1133  -7.9335
    -7.9316  -7.5880  -7.5850  -7.5178  -7.5160  -7.4822  -7.4818  -7.3114
    -7.3093  -7.2352  -7.2349  -6.9039  -6.9020  -6.7363  -6.5901  -6.5898
    -6.4025  -6.4002  -5.9989  -5.9986  -1.3229  -1.3226  -1.2296  -1.1636
    -1.1630  -0.9249  -0.9241  -0.8956  -0.8940  -0.8837  -0.8835  -0.4701
    -0.4678  -0.4261  -0.4261  -0.2100  -0.2098  -0.1883  -0.1880  -0.0310
    -0.0308   0.0011   0.0031   0.0450   0.0451   0.1867   0.1871   0.2770
     0.2772   0.2866   0.2868   0.4079   0.4081   0.4608   0.4610   0.5296

     occupation numbers 
     1.0000   1.0000   1.0000   1.0000   1.0000   1.0000   1.0000   1.0000
     1.0000   1.0000   1.0000   1.0000   1.0000   1.0000   1.0000   1.0000
     1.0000   1.0000   1.0000   1.0000   1.0000   1.0000   1.0000   1.0000
     1.0000   1.0000   1.0000   1.0000   1.0000   1.0000   1.0000   1.0000
     1.0000   1.0000   1.0000   1.0000   1.0000   1.0000   1.0000   1.0000
     1.0000   1.0000   1.0000   1.0000   1.0000   1.0000   1.0000   1.0000
     1.0000   1.0000   1.0000   1.0000   1.0000   1.0000   1.0000   1.0000
     1.0000   1.0000   1.0000   1.0000   1.0000   1.0000   1.0000   1.0000
     1.0000   1.0000   1.0000   1.0000   1.0000   1.0000   1.0000   1.0000
     1.0000   1.0000   1.0000   1.0000   1.0000   1.0000   1.0000   1.0000
     1.0000   1.0000   1.0000   1.0000   1.0000   1.0000   1.0000   1.0000
     1.0000   1.0000   1.0000   1.0000   1.0000   1.0000   1.0000   1.0000
     1.0000   1.0000   1.0000   1.0000   1.0000   1.0000   1.0000   1.0000
     1.0000   1.0000   1.0000   1.0000   1.0000   1.0000   1.0000   1.0000
     1.0000   1.0000   1.0000   1.0000   1.0000   1.0000   1.0000   1.0000
     1.0000   1.0000   1.0000   1.0000   0.0000   0.0000   0.0000   0.0000
     0.0000   0.0000   0.0000   0.0000   0.0000   0.0000   0.0000   0.0000
     0.0000   0.0000   0.0000   0.0000   0.0000   0.0000   0.0000   0.0000
     0.0000   0.0000   0.0000   0.0000   0.0000   0.0000   0.0000   0.0000
     0.0000   0.0000   0.0000   0.0000   0.0000   0.0000   0.0000   0.0000

     the Fermi energy is    -4.0316 ev

!    total energy              =   -1236.04085815 Ry
     total all-electron energy =     -4941.723368 Ry
     estimated scf accuracy    <          1.0E-08 Ry
     smearing contrib. (-TS)   =       0.00000000 Ry
     internal energy E=F+TS    =   -1236.04085815 Ry

     The total energy is F=E-TS. E is the sum of the following terms:
     one-electron contribution =  -24829.29993073 Ry
     hartree contribution      =   12452.53649722 Ry
     xc contribution           =    -270.43371641 Ry
     ewald contribution        =   11820.05264480 Ry
     DFT-D3 Dispersion         =      -0.33997622 Ry
     one-center paw contrib.   =    -408.55637681 Ry
      -> PAW hartree energy AE =       5.82108960 Ry
      -> PAW hartree energy PS =      -5.84389435 Ry
      -> PAW xc energy AE      =     -15.10314888 Ry
      -> PAW xc energy PS      =       4.70974165 Ry
      -> total E_H with PAW    =   12452.51369247 Ry
      -> total E_XC with PAW   =    -280.82712364 Ry

     total magnetization       =    -0.00 Bohr mag/cell
     absolute magnetization    =     0.00 Bohr mag/cell

     convergence has been achieved in 451 iterations

     negative rho (up, down):  6.299E-03 6.299E-03

     Forces acting on atoms (cartesian axes, Ry/au):

     atom    1 type  1   force =    -0.00044112   -0.00050155    0.00189473
     atom    2 type  1   force =    -0.00092013    0.00012603    0.00151058
     atom    3 type  1   force =    -0.00058510   -0.00036615    0.00131982
     atom    4 type  1   force =    -0.00011177    0.00018318    0.00194907
     atom    5 type  1   force =     0.00055615    0.00074023    0.00151153
     atom    6 type  1   force =     0.00017338    0.00004006    0.00274737
     atom    7 type  1   force =    -0.00010269    0.00014258    0.00274935
     atom    8 type  1   force =    -0.00069604   -0.00038701    0.00027603
     atom    9 type  1   force =    -0.00042211   -0.00030746    0.00076907
     atom   10 type  1   force =    -0.00013796    0.00025156    0.00216881
     atom   11 type  1   force =    -0.00023379    0.00065087    0.00188652
     atom   12 type  1   force =    -0.00007521   -0.00016081    0.00274927
     atom   13 type  1   force =     0.00066948   -0.00014881    0.00188733
     atom   14 type  1   force =     0.00049742   -0.00052503    0.00105801
     atom   15 type  1   force =     0.00028005   -0.00025694    0.00262477
     atom   16 type  1   force =     0.00020011    0.00069581    0.00105227
     atom   17 type  1   force =     0.00066579   -0.00042612    0.00028023
     atom   18 type  1   force =     0.00034587   -0.00087883    0.00151646
     atom   19 type  1   force =     0.00027304   -0.00001489    0.00216721
     atom   20 type  1   force =    -0.00036412   -0.00009315    0.00261624
     atom   21 type  1   force =     0.00010467    0.00039037    0.00263307
     atom   22 type  1   force =     0.00047890   -0.00021999    0.00077386
     atom   23 type  1   force =     0.00059845   -0.00034831    0.00133139
     atom   24 type  1   force =     0.00021483   -0.00001122    0.00194290
     atom   25 type  1   force =    -0.00004075    0.00052279    0.00076640
     atom   26 type  1   force =    -0.00068948   -0.00014781    0.00105407
     atom   27 type  1   force =    -0.00013964   -0.00022748    0.00217070
     atom   28 type  1   force =    -0.00011028   -0.00019440    0.00194996
     atom   29 type  1   force =    -0.00000586   -0.00000990    0.00260529
     atom   30 type  1   force =    -0.00002020    0.00068402    0.00131980
     atom   31 type  1   force =     0.00003966    0.00081243    0.00028415
     atom   32 type  2   force =    -0.00059767    0.00024224   -0.00094336
     atom   33 type  2   force =     0.00102476   -0.00054589   -0.00136041
     atom   34 type  2   force =     0.00074623   -0.00211023   -0.00291924
     atom   35 type  2   force =     0.00034035   -0.00078788   -0.00117480
     atom   36 type  2   force =     0.00144740    0.00169909   -0.00293367
     atom   37 type  2   force =    -0.00049440    0.00046943   -0.00311718
     atom   38 type  2   force =    -0.00091943   -0.00081906   -0.00070591
     atom   39 type  2   force =     0.00005427   -0.00035271    0.00046176
     atom   40 type  2   force =    -0.00084296    0.00009149   -0.00117840
     atom   41 type  2   force =     0.00050736    0.00069269   -0.00118045
     atom   42 type  2   force =     0.00157157   -0.00022962   -0.00359602
     atom   43 type  2   force =    -0.00018230   -0.00167110   -0.00288408
     atom   44 type  2   force =     0.00010955    0.00023534   -0.00074503
     atom   45 type  2   force =    -0.00058376    0.00147367   -0.00360023
     atom   46 type  2   force =    -0.00218688    0.00041347   -0.00293249
     atom   47 type  2   force =    -0.00032073    0.00014458    0.00047201
     atom   48 type  2   force =     0.00014994   -0.00022035   -0.00073744
     atom   49 type  2   force =    -0.00000603   -0.00001816   -0.00056091
     atom   50 type  2   force =     0.00152528    0.00066942   -0.00289294
     atom   51 type  2   force =    -0.00015938   -0.00065012   -0.00311151
     atom   52 type  2   force =    -0.00097542   -0.00058847   -0.00136086
     atom   53 type  2   force =    -0.00024226    0.00121556   -0.00072517
     atom   54 type  2   force =    -0.00136046    0.00096956   -0.00290586
     atom   55 type  2   force =    -0.00027529   -0.00004351   -0.00073672
     atom   56 type  2   force =     0.00116504   -0.00038843   -0.00071981
     atom   57 type  2   force =     0.00010185   -0.00061689   -0.00093858
     atom   58 type  2   force =     0.00051012    0.00041953   -0.00094839
     atom   59 type  2   force =     0.00064959    0.00018331   -0.00308818
     atom   60 type  2   force =    -0.00099287   -0.00126606   -0.00359637
     atom   61 type  2   force =     0.00027362    0.00020720    0.00046443
     atom   62 type  2   force =    -0.00003866    0.00116783   -0.00137045
     The non-local contrib.  to forces
     atom    1 type  1   force =    -0.00066591   -0.00018906   -0.00055542
     atom    2 type  1   force =    -0.00086205    0.00072416   -0.00056134
     atom    3 type  1   force =    -0.00038511   -0.00033437    0.00036295
     atom    4 type  1   force =    -0.00011627   -0.00054640   -0.00123187
     atom    5 type  1   force =     0.00105101    0.00039933   -0.00057353
     atom    6 type  1   force =     0.00057020    0.00033371   -0.00093940
     atom    7 type  1   force =    -0.00055412    0.00033763   -0.00093294
     atom    8 type  1   force =    -0.00068489   -0.00006306    0.00280673
     atom    9 type  1   force =    -0.00063998   -0.00060629    0.00128318
     atom   10 type  1   force =    -0.00038776    0.00011397   -0.00198187
     atom   11 type  1   force =     0.00015619    0.00068649   -0.00054448
     atom   12 type  1   force =    -0.00001961   -0.00064809   -0.00093269
     atom   13 type  1   force =     0.00050404   -0.00049127   -0.00054907
     atom   14 type  1   force =     0.00078070   -0.00013266    0.00106732
     atom   15 type  1   force =    -0.00019548    0.00002956   -0.00117647
     atom   16 type  1   force =    -0.00028012    0.00074112    0.00107597
     atom   17 type  1   force =     0.00038769   -0.00057323    0.00280069
     atom   18 type  1   force =    -0.00020114   -0.00112060   -0.00057272
     atom   19 type  1   force =     0.00027554    0.00027745   -0.00197767
     atom   20 type  1   force =     0.00012091    0.00015936   -0.00116486
     atom   21 type  1   force =     0.00008373   -0.00018023   -0.00118145
     atom   22 type  1   force =     0.00084898   -0.00026332    0.00128301
     atom   23 type  1   force =     0.00047415   -0.00018657    0.00034635
     atom   24 type  1   force =    -0.00041550    0.00036772   -0.00121988
     atom   25 type  1   force =    -0.00019920    0.00085770    0.00129079
     atom   26 type  1   force =    -0.00049975   -0.00060293    0.00107397
     atom   27 type  1   force =     0.00010672   -0.00038588   -0.00198337
     atom   28 type  1   force =     0.00053398    0.00016563   -0.00122591
     atom   29 type  1   force =    -0.00000174   -0.00000929   -0.00176562
     atom   30 type  1   force =    -0.00008591    0.00050281    0.00034965
     atom   31 type  1   force =     0.00030707    0.00063957    0.00278367
     atom   32 type  2   force =    -0.00066068    0.00015699   -0.00230949
     atom   33 type  2   force =     0.00123731   -0.00086050   -0.00589987
     atom   34 type  2   force =     0.00106657   -0.00215235   -0.01880410
     atom   35 type  2   force =     0.00002879   -0.00045300   -0.00345258
     atom   36 type  2   force =     0.00131805    0.00200114   -0.01893654
     atom   37 type  2   force =    -0.00057740    0.00062017   -0.02354329
     atom   38 type  2   force =    -0.00126577   -0.00099092   -0.00077497
     atom   39 type  2   force =     0.00054015   -0.00017550    0.00843233
     atom   40 type  2   force =    -0.00039992    0.00019253   -0.00349204
     atom   41 type  2   force =     0.00037046    0.00025372   -0.00350373
     atom   42 type  2   force =     0.00150828   -0.00045367   -0.02527848
     atom   43 type  2   force =    -0.00058658   -0.00150671   -0.01875684
     atom   44 type  2   force =    -0.00029495    0.00073252   -0.00077963
     atom   45 type  2   force =    -0.00034912    0.00153553   -0.02531730
     atom   46 type  2   force =    -0.00238306    0.00015139   -0.01891129
     atom   47 type  2   force =    -0.00041348   -0.00035623    0.00850279
     atom   48 type  2   force =     0.00077663   -0.00010457   -0.00073288
     atom   49 type  2   force =    -0.00000288   -0.00001715    0.00087792
     atom   50 type  2   force =     0.00160195    0.00023539   -0.01881368
     atom   51 type  2   force =    -0.00024014   -0.00079880   -0.02348057
     atom   52 type  2   force =    -0.00135675   -0.00061847   -0.00591162
     atom   53 type  2   force =    -0.00022741    0.00160356   -0.00093043
     atom   54 type  2   force =    -0.00102670    0.00124564   -0.01892483
     atom   55 type  2   force =    -0.00049370   -0.00065271   -0.00070985
     atom   56 type  2   force =     0.00149983   -0.00060442   -0.00087003
     atom   57 type  2   force =     0.00020836   -0.00063585   -0.00227246
     atom   58 type  2   force =     0.00047158    0.00050666   -0.00234751
     atom   59 type  2   force =     0.00080898    0.00018251   -0.02331988
     atom   60 type  2   force =    -0.00116843   -0.00110195   -0.02526090
     atom   61 type  2   force =    -0.00011784    0.00053779    0.00845080
     atom   62 type  2   force =     0.00013088    0.00151240   -0.00599768
     The ionic contribution  to forces
     atom    1 type  1   force =    -0.00678084   -0.00285412   -0.05156764
     atom    2 type  1   force =    -0.00685541    0.00841228   -0.06107968
     atom    3 type  1   force =    -0.00338594   -0.00187650   -0.00646259
     atom    4 type  1   force =     0.00020617   -0.00596771   -0.11985221
     atom    5 type  1   force =     0.01058367    0.00173991   -0.06235345
     atom    6 type  1   force =     0.00546690    0.00119232   -0.08596583
     atom    7 type  1   force =    -0.00372306    0.00424343   -0.08524531
     atom    8 type  1   force =    -0.00215218    0.00155191    0.17449801
     atom    9 type  1   force =    -0.00302271   -0.00711991    0.06717845
     atom   10 type  1   force =    -0.00185395    0.00144550   -0.14781664
     atom   11 type  1   force =     0.00080563    0.00735189   -0.05079283
     atom   12 type  1   force =    -0.00179364   -0.00532623   -0.08529431
     atom   13 type  1   force =     0.00596555   -0.00445313   -0.05076711
     atom   14 type  1   force =     0.01041467   -0.00234363    0.04658603
     atom   15 type  1   force =    -0.00010609    0.00099121   -0.10742858
     atom   16 type  1   force =    -0.00311277    0.01015657    0.04687747
     atom   17 type  1   force =    -0.00027483   -0.00273055    0.17381916
     atom   18 type  1   force =    -0.00383933   -0.01015327   -0.06185664
     atom   19 type  1   force =     0.00215326    0.00088430   -0.14724045
     atom   20 type  1   force =     0.00094108   -0.00031078   -0.10665108
     atom   21 type  1   force =    -0.00067111   -0.00055751   -0.10768992
     atom   22 type  1   force =     0.00771711    0.00088220    0.06694761
     atom   23 type  1   force =     0.00324582   -0.00209198   -0.00765995
     atom   24 type  1   force =    -0.00527529    0.00270746   -0.11916962
     atom   25 type  1   force =    -0.00460738    0.00617607    0.06749544
     atom   26 type  1   force =    -0.00719714   -0.00772608    0.04659446
     atom   27 type  1   force =    -0.00029466   -0.00226519   -0.14788005
     atom   28 type  1   force =     0.00499316    0.00313755   -0.11943125
     atom   29 type  1   force =    -0.00005704   -0.00007188   -0.16690004
     atom   30 type  1   force =     0.00006902    0.00377898   -0.00764246
     atom   31 type  1   force =     0.00247676    0.00117581    0.17251883
     atom   32 type  2   force =    -0.00664990    0.00217058   -0.15280633
     atom   33 type  2   force =     0.00880041    0.00231952   -0.05090724
     atom   34 type  2   force =     0.00814113   -0.01423406    0.22934020
     atom   35 type  2   force =     0.00633868   -0.00886906   -0.10851787
     atom   36 type  2   force =     0.00825816    0.01418904    0.23316669
     atom   37 type  2   force =    -0.00732962    0.00027586    0.41543945
     atom   38 type  2   force =    -0.00401650   -0.00651616   -0.12416971
     atom   39 type  2   force =    -0.00172244   -0.00148931   -0.27690250
     atom   40 type  2   force =    -0.01082697   -0.00103327   -0.10756365
     atom   41 type  2   force =     0.00458118    0.00995888   -0.10705971
     atom   42 type  2   force =     0.01519698    0.00092173    0.39460186
     atom   43 type  2   force =     0.00504044   -0.01730129    0.22091373
     atom   44 type  2   force =     0.00496724    0.00089852   -0.13122162
     atom   45 type  2   force =    -0.00842740    0.01260377    0.39492784
     atom   46 type  2   force =    -0.01633626    0.00008170    0.23198540
     atom   47 type  2   force =    -0.00034070    0.00222821   -0.27724114
     atom   48 type  2   force =    -0.00167641   -0.00479720   -0.13122743
     atom   49 type  2   force =    -0.00000401   -0.00003686   -0.21293105
     atom   50 type  2   force =     0.01239313    0.01296147    0.22146708
     atom   51 type  2   force =     0.00336246   -0.00648557    0.41344073
     atom   52 type  2   force =    -0.00233179   -0.00872227   -0.05015263
     atom   53 type  2   force =    -0.00355321    0.00677210   -0.12129661
     atom   54 type  2   force =    -0.01746192    0.00422333    0.22366231
     atom   55 type  2   force =    -0.00334455    0.00383134   -0.13247966
     atom   56 type  2   force =     0.00754777   -0.00022778   -0.12294863
     atom   57 type  2   force =     0.00140778   -0.00670856   -0.15369744
     atom   58 type  2   force =     0.00515746    0.00476166   -0.15254262
     atom   59 type  2   force =     0.00396539    0.00613366    0.41109897
     atom   60 type  2   force =    -0.00672755   -0.01363403    0.39287694
     atom   61 type  2   force =     0.00206323   -0.00077151   -0.27693305
     atom   62 type  2   force =    -0.00650764    0.00651665   -0.04809013
     The local contribution  to forces
     atom    1 type  1   force =     0.00702132    0.00259250    0.05391501
     atom    2 type  1   force =     0.00675283   -0.00885847    0.06305707
     atom    3 type  1   force =     0.00316756    0.00186856    0.00737744
     atom    4 type  1   force =    -0.00018535    0.00661690    0.12288725
     atom    5 type  1   force =    -0.01093165   -0.00143273    0.06434338
     atom    6 type  1   force =    -0.00575260   -0.00145227    0.08949467
     atom    7 type  1   force =     0.00410752   -0.00435974    0.08876982
     atom    8 type  1   force =     0.00203896   -0.00179599   -0.17689434
     atom    9 type  1   force =     0.00317796    0.00739362   -0.06766220
     atom   10 type  1   force =     0.00208723   -0.00137216    0.15178885
     atom   11 type  1   force =    -0.00116243   -0.00743010    0.05312182
     atom   12 type  1   force =     0.00170122    0.00571485    0.08881838
     atom   13 type  1   force =    -0.00585274    0.00479115    0.05310129
     atom   14 type  1   force =    -0.01069450    0.00199714   -0.04659510
     atom   15 type  1   force =     0.00054862   -0.00129031    0.11106148
     atom   16 type  1   force =     0.00355082   -0.01022647   -0.04690035
     atom   17 type  1   force =     0.00053772    0.00274801   -0.17620598
     atom   18 type  1   force =     0.00427703    0.01028000    0.06385039
     atom   19 type  1   force =    -0.00220923   -0.00112645    0.15120718
     atom   20 type  1   force =    -0.00142034    0.00009354    0.11026480
     atom   21 type  1   force =     0.00072237    0.00110096    0.11133566
     atom   22 type  1   force =    -0.00803331   -0.00088852   -0.06742679
     atom   23 type  1   force =    -0.00313863    0.00189968    0.00860164
     atom   24 type  1   force =     0.00583132   -0.00306469    0.12218700
     atom   25 type  1   force =     0.00477480   -0.00644374   -0.06798901
     atom   26 type  1   force =     0.00704137    0.00815575   -0.04661368
     atom   27 type  1   force =     0.00011275    0.00243793    0.15185555
     atom   28 type  1   force =    -0.00557728   -0.00344081    0.12246124
     atom   29 type  1   force =     0.00005015    0.00006395    0.17107206
     atom   30 type  1   force =     0.00003242   -0.00359039    0.00856979
     atom   31 type  1   force =    -0.00261637   -0.00095030   -0.17488570
     atom   32 type  2   force =     0.00669301   -0.00207748    0.15408421
     atom   33 type  2   force =    -0.00898733   -0.00202089    0.05531952
     atom   34 type  2   force =    -0.00843063    0.01421830   -0.21373011
     atom   35 type  2   force =    -0.00601354    0.00850313    0.11068923
     atom   36 type  2   force =    -0.00809387   -0.01444079   -0.21744067
     atom   37 type  2   force =     0.00740663   -0.00040617   -0.39532385
     atom   38 type  2   force =     0.00433684    0.00667048    0.12417428
     atom   39 type  2   force =     0.00123189    0.00129992    0.26897693
     atom   40 type  2   force =     0.01035765    0.00093557    0.10977040
     atom   41 type  2   force =    -0.00443291   -0.00948985    0.10927612
     atom   42 type  2   force =    -0.01509601   -0.00071071   -0.37326303
     atom   43 type  2   force =    -0.00463311    0.01709990   -0.20531596
     atom   44 type  2   force =    -0.00455683   -0.00139050    0.13118798
     atom   45 type  2   force =     0.00817895   -0.01263064   -0.37355510
     atom   46 type  2   force =     0.01647552    0.00019383   -0.21628356
     atom   47 type  2   force =     0.00042680   -0.00171788    0.26925611
     atom   48 type  2   force =     0.00104361    0.00467467    0.13115524
     atom   49 type  2   force =     0.00000174    0.00003657    0.21143567
     atom   50 type  2   force =    -0.01243322   -0.01250960   -0.20582251
     atom   51 type  2   force =    -0.00329495    0.00661768   -0.39338211
     atom   52 type  2   force =     0.00268255    0.00873685    0.05457610
     atom   53 type  2   force =     0.00353917   -0.00712834    0.12143538
     atom   54 type  2   force =     0.01709041   -0.00447804   -0.20792015
     atom   55 type  2   force =     0.00355277   -0.00322150    0.13238542
     atom   56 type  2   force =    -0.00785057    0.00043053    0.12303281
     atom   57 type  2   force =    -0.00151158    0.00670905    0.15494307
     atom   58 type  2   force =    -0.00510161   -0.00484106    0.15385261
     atom   59 type  2   force =    -0.00409970   -0.00612487   -0.39117536
     atom   60 type  2   force =     0.00687150    0.01343312   -0.37155603
     atom   61 type  2   force =    -0.00166552    0.00043436    0.26899221
     atom   62 type  2   force =     0.00634174   -0.00681474    0.05258913
     The core correction contribution to forces
     atom    1 type  1   force =    -0.00002010   -0.00005535    0.00008450
     atom    2 type  1   force =     0.00004440   -0.00014930    0.00007473
     atom    3 type  1   force =     0.00001756   -0.00002485    0.00003010
     atom    4 type  1   force =    -0.00002212    0.00008069    0.00011986
     atom    5 type  1   force =    -0.00015388    0.00003256    0.00007533
     atom    6 type  1   force =    -0.00010650   -0.00002692    0.00013657
     atom    7 type  1   force =     0.00006906   -0.00008162    0.00013633
     atom    8 type  1   force =     0.00009883   -0.00007794   -0.00012489
     atom    9 type  1   force =     0.00006307    0.00002769   -0.00003398
     atom   10 type  1   force =     0.00001632    0.00006354    0.00014805
     atom   11 type  1   force =    -0.00003824    0.00004179    0.00008381
     atom   12 type  1   force =     0.00003124    0.00009874    0.00013636
     atom   13 type  1   force =     0.00005512    0.00000860    0.00008399
     atom   14 type  1   force =    -0.00000105   -0.00004884   -0.00000663
     atom   15 type  1   force =     0.00004034    0.00000991    0.00014405
     atom   16 type  1   force =     0.00004297    0.00002637   -0.00000715
     atom   17 type  1   force =     0.00001746    0.00012762   -0.00012435
     atom   18 type  1   force =     0.00010827    0.00011371    0.00007546
     atom   19 type  1   force =     0.00004808   -0.00004834    0.00014777
     atom   20 type  1   force =    -0.00001133   -0.00003875    0.00014325
     atom   21 type  1   force =    -0.00002605    0.00003325    0.00014444
     atom   22 type  1   force =    -0.00005394    0.00004697   -0.00003372
     atom   23 type  1   force =     0.00001638    0.00003243    0.00003128
     atom   24 type  1   force =     0.00008248   -0.00002220    0.00011933
     atom   25 type  1   force =    -0.00000750   -0.00007082   -0.00003436
     atom   26 type  1   force =    -0.00004048    0.00002438   -0.00000699
     atom   27 type  1   force =    -0.00006298   -0.00001409    0.00014819
     atom   28 type  1   force =    -0.00005809   -0.00005473    0.00011974
     atom   29 type  1   force =     0.00000125    0.00000197    0.00016799
     atom   30 type  1   force =    -0.00003236   -0.00000413    0.00003071
     atom   31 type  1   force =    -0.00011857   -0.00005211   -0.00012340
     atom   32 type  2   force =     0.00001766   -0.00000950    0.00005295
     atom   33 type  2   force =    -0.00002901    0.00001334    0.00009697
     atom   34 type  2   force =    -0.00001893    0.00005817    0.00026067
     atom   35 type  2   force =    -0.00000948    0.00002155    0.00007247
     atom   36 type  2   force =    -0.00004068   -0.00004549    0.00026227
     atom   37 type  2   force =     0.00001253   -0.00001615    0.00030878
     atom   38 type  2   force =     0.00002455    0.00001891    0.00003020
     atom   39 type  2   force =    -0.00000333    0.00000839   -0.00008786
     atom   40 type  2   force =     0.00002312   -0.00000247    0.00007288
     atom   41 type  2   force =    -0.00001378   -0.00001902    0.00007304
     atom   42 type  2   force =    -0.00004070    0.00000738    0.00033865
     atom   43 type  2   force =     0.00000536    0.00004372    0.00026021
     atom   44 type  2   force =    -0.00000481   -0.00000967    0.00003327
     atom   45 type  2   force =     0.00001373   -0.00003894    0.00033915
     atom   46 type  2   force =     0.00005946   -0.00001283    0.00026203
     atom   47 type  2   force =     0.00000858   -0.00000185   -0.00008882
     atom   48 type  2   force =    -0.00000592    0.00000897    0.00003259
     atom   49 type  2   force =     0.00000012    0.00000044    0.00001687
     atom   50 type  2   force =    -0.00004040   -0.00001699    0.00026097
     atom   51 type  2   force =     0.00000772    0.00001867    0.00030808
     atom   52 type  2   force =     0.00002565    0.00001786    0.00009709
     atom   53 type  2   force =     0.00000396   -0.00003083    0.00003225
     atom   54 type  2   force =     0.00003542   -0.00002609    0.00026240
     atom   55 type  2   force =     0.00001114    0.00000129    0.00003242
     atom   56 type  2   force =    -0.00002849    0.00001181    0.00003155
     atom   57 type  2   force =    -0.00000076    0.00001962    0.00005247
     atom   58 type  2   force =    -0.00001721   -0.00001090    0.00005340
     atom   59 type  2   force =    -0.00002005   -0.00000251    0.00030600
     atom   60 type  2   force =     0.00002716    0.00003213    0.00033849
     atom   61 type  2   force =    -0.00000538   -0.00000664   -0.00008805
     atom   62 type  2   force =     0.00000301   -0.00003202    0.00009810
     The Hubbard contrib.    to forces
     atom    1 type  1   force =     0.00000000    0.00000000    0.00000000
     atom    2 type  1   force =     0.00000000    0.00000000    0.00000000
     atom    3 type  1   force =     0.00000000    0.00000000    0.00000000
     atom    4 type  1   force =     0.00000000    0.00000000    0.00000000
     atom    5 type  1   force =     0.00000000    0.00000000    0.00000000
     atom    6 type  1   force =     0.00000000    0.00000000    0.00000000
     atom    7 type  1   force =     0.00000000    0.00000000    0.00000000
     atom    8 type  1   force =     0.00000000    0.00000000    0.00000000
     atom    9 type  1   force =     0.00000000    0.00000000    0.00000000
     atom   10 type  1   force =     0.00000000    0.00000000    0.00000000
     atom   11 type  1   force =     0.00000000    0.00000000    0.00000000
     atom   12 type  1   force =     0.00000000    0.00000000    0.00000000
     atom   13 type  1   force =     0.00000000    0.00000000    0.00000000
     atom   14 type  1   force =     0.00000000    0.00000000    0.00000000
     atom   15 type  1   force =     0.00000000    0.00000000    0.00000000
     atom   16 type  1   force =     0.00000000    0.00000000    0.00000000
     atom   17 type  1   force =     0.00000000    0.00000000    0.00000000
     atom   18 type  1   force =     0.00000000    0.00000000    0.00000000
     atom   19 type  1   force =     0.00000000    0.00000000    0.00000000
     atom   20 type  1   force =     0.00000000    0.00000000    0.00000000
     atom   21 type  1   force =     0.00000000    0.00000000    0.00000000
     atom   22 type  1   force =     0.00000000    0.00000000    0.00000000
     atom   23 type  1   force =     0.00000000    0.00000000    0.00000000
     atom   24 type  1   force =     0.00000000    0.00000000    0.00000000
     atom   25 type  1   force =     0.00000000    0.00000000    0.00000000
     atom   26 type  1   force =     0.00000000    0.00000000    0.00000000
     atom   27 type  1   force =     0.00000000    0.00000000    0.00000000
     atom   28 type  1   force =     0.00000000    0.00000000    0.00000000
     atom   29 type  1   force =     0.00000000    0.00000000    0.00000000
     atom   30 type  1   force =     0.00000000    0.00000000    0.00000000
     atom   31 type  1   force =     0.00000000    0.00000000    0.00000000
     atom   32 type  2   force =     0.00000000    0.00000000    0.00000000
     atom   33 type  2   force =     0.00000000    0.00000000    0.00000000
     atom   34 type  2   force =     0.00000000    0.00000000    0.00000000
     atom   35 type  2   force =     0.00000000    0.00000000    0.00000000
     atom   36 type  2   force =     0.00000000    0.00000000    0.00000000
     atom   37 type  2   force =     0.00000000    0.00000000    0.00000000
     atom   38 type  2   force =     0.00000000    0.00000000    0.00000000
     atom   39 type  2   force =     0.00000000    0.00000000    0.00000000
     atom   40 type  2   force =     0.00000000    0.00000000    0.00000000
     atom   41 type  2   force =     0.00000000    0.00000000    0.00000000
     atom   42 type  2   force =     0.00000000    0.00000000    0.00000000
     atom   43 type  2   force =     0.00000000    0.00000000    0.00000000
     atom   44 type  2   force =     0.00000000    0.00000000    0.00000000
     atom   45 type  2   force =     0.00000000    0.00000000    0.00000000
     atom   46 type  2   force =     0.00000000    0.00000000    0.00000000
     atom   47 type  2   force =     0.00000000    0.00000000    0.00000000
     atom   48 type  2   force =     0.00000000    0.00000000    0.00000000
     atom   49 type  2   force =     0.00000000    0.00000000    0.00000000
     atom   50 type  2   force =     0.00000000    0.00000000    0.00000000
     atom   51 type  2   force =     0.00000000    0.00000000    0.00000000
     atom   52 type  2   force =     0.00000000    0.00000000    0.00000000
     atom   53 type  2   force =     0.00000000    0.00000000    0.00000000
     atom   54 type  2   force =     0.00000000    0.00000000    0.00000000
     atom   55 type  2   force =     0.00000000    0.00000000    0.00000000
     atom   56 type  2   force =     0.00000000    0.00000000    0.00000000
     atom   57 type  2   force =     0.00000000    0.00000000    0.00000000
     atom   58 type  2   force =     0.00000000    0.00000000    0.00000000
     atom   59 type  2   force =     0.00000000    0.00000000    0.00000000
     atom   60 type  2   force =     0.00000000    0.00000000    0.00000000
     atom   61 type  2   force =     0.00000000    0.00000000    0.00000000
     atom   62 type  2   force =     0.00000000    0.00000000    0.00000000
     The SCF correction term to forces
     atom    1 type  1   force =     0.00000418    0.00000434    0.00001943
     atom    2 type  1   force =    -0.00000021   -0.00000225    0.00001956
     atom    3 type  1   force =     0.00000040    0.00000111    0.00001940
     atom    4 type  1   force =     0.00000574   -0.00000044    0.00001941
     atom    5 type  1   force =     0.00000745    0.00000125    0.00001942
     atom    6 type  1   force =    -0.00000448   -0.00000680    0.00001930
     atom    7 type  1   force =    -0.00000215    0.00000307    0.00001946
     atom    8 type  1   force =     0.00000331   -0.00000174    0.00001941
     atom    9 type  1   force =    -0.00000051   -0.00000312    0.00001932
     atom   10 type  1   force =     0.00000028    0.00000082    0.00001961
     atom   11 type  1   force =     0.00000502    0.00000109    0.00001947
     atom   12 type  1   force =     0.00000544   -0.00000018    0.00001955
     atom   13 type  1   force =    -0.00000225   -0.00000426    0.00001947
     atom   14 type  1   force =    -0.00000201    0.00000265    0.00001955
     atom   15 type  1   force =    -0.00000726    0.00000263    0.00001960
     atom   16 type  1   force =    -0.00000069   -0.00000124    0.00001953
     atom   17 type  1   force =    -0.00000246    0.00000201    0.00001953
     atom   18 type  1   force =     0.00000084    0.00000091    0.00001964
     atom   19 type  1   force =     0.00000541   -0.00000196    0.00001964
     atom   20 type  1   force =     0.00000543    0.00000346    0.00001952
     atom   21 type  1   force =    -0.00000427   -0.00000596    0.00001963
     atom   22 type  1   force =     0.00000058    0.00000294    0.00001945
     atom   23 type  1   force =     0.00000085   -0.00000226    0.00001942
     atom   24 type  1   force =    -0.00000832    0.00000062    0.00001951
     atom   25 type  1   force =    -0.00000196    0.00000393    0.00001930
     atom   26 type  1   force =     0.00000601    0.00000092    0.00001948
     atom   27 type  1   force =    -0.00000161   -0.00000020    0.00001957
     atom   28 type  1   force =    -0.00000190   -0.00000199    0.00001956
     atom   29 type  1   force =     0.00000150    0.00000537    0.00001953
     atom   30 type  1   force =    -0.00000312   -0.00000291    0.00001946
     atom   31 type  1   force =    -0.00000914   -0.00000068    0.00001941
     atom   32 type  2   force =     0.00000212    0.00000167    0.00003186
     atom   33 type  2   force =     0.00000341    0.00000273    0.00003241
     atom   34 type  2   force =    -0.00001192   -0.00000040    0.00003216
     atom   35 type  2   force =    -0.00000402    0.00000943    0.00003220
     atom   36 type  2   force =     0.00000584   -0.00000471    0.00003286
     atom   37 type  2   force =    -0.00000654   -0.00000434    0.00003230
     atom   38 type  2   force =     0.00000156   -0.00000150    0.00003229
     atom   39 type  2   force =     0.00000788    0.00000379    0.00003215
     atom   40 type  2   force =     0.00000302   -0.00000088    0.00003231
     atom   41 type  2   force =     0.00000243   -0.00001091    0.00003216
     atom   42 type  2   force =     0.00000319    0.00000573    0.00003286
     atom   43 type  2   force =    -0.00000824   -0.00000692    0.00003240
     atom   44 type  2   force =    -0.00000100    0.00000451    0.00003239
     atom   45 type  2   force =    -0.00000009    0.00000411    0.00003310
     atom   46 type  2   force =    -0.00000268   -0.00000054    0.00003314
     atom   47 type  2   force =    -0.00000190   -0.00000755    0.00003234
     atom   48 type  2   force =     0.00001198   -0.00000232    0.00003247
     atom   49 type  2   force =    -0.00000102   -0.00000114    0.00003218
     atom   50 type  2   force =     0.00000390   -0.00000056    0.00003285
     atom   51 type  2   force =     0.00000557   -0.00000202    0.00003280
     atom   52 type  2   force =     0.00000494   -0.00000249    0.00003244
     atom   53 type  2   force =    -0.00000497   -0.00000096    0.00003240
     atom   54 type  2   force =     0.00000204    0.00000470    0.00003219
     atom   55 type  2   force =    -0.00000104   -0.00000182    0.00003231
     atom   56 type  2   force =    -0.00000348    0.00000164    0.00003255
     atom   57 type  2   force =    -0.00000192   -0.00000122    0.00003229
     atom   58 type  2   force =    -0.00000006    0.00000328    0.00003231
     atom   59 type  2   force =    -0.00000512   -0.00000543    0.00003244
     atom   60 type  2   force =     0.00000441    0.00000449    0.00003292
     atom   61 type  2   force =    -0.00000081    0.00001313    0.00003180
     atom   62 type  2   force =    -0.00000675   -0.00001444    0.00003248

     DFT-D3 dispersion contribution to forces:
     atom    1 type  1   force =     0.00000022    0.00000014    0.00000424
     atom    2 type  1   force =     0.00000029   -0.00000038    0.00000564
     atom    3 type  1   force =     0.00000042   -0.00000008   -0.00000208
     atom    4 type  1   force =     0.00000003    0.00000016    0.00001204
     atom    5 type  1   force =    -0.00000047   -0.00000007    0.00000578
     atom    6 type  1   force =    -0.00000015    0.00000004    0.00000747
     atom    7 type  1   force =     0.00000004   -0.00000016    0.00000738
     atom    8 type  1   force =    -0.00000008   -0.00000017   -0.00002348
     atom    9 type  1   force =     0.00000005    0.00000058   -0.00001031
     atom   10 type  1   force =    -0.00000009   -0.00000009    0.00001620
     atom   11 type  1   force =     0.00000002   -0.00000027    0.00000414
     atom   12 type  1   force =     0.00000012    0.00000011    0.00000739
     atom   13 type  1   force =    -0.00000024    0.00000012    0.00000416
     atom   14 type  1   force =    -0.00000040    0.00000035   -0.00000775
     atom   15 type  1   force =    -0.00000010    0.00000007    0.00001010
     atom   16 type  1   force =    -0.00000010   -0.00000052   -0.00000779
     atom   17 type  1   force =     0.00000019    0.00000002   -0.00002341
     atom   18 type  1   force =     0.00000018    0.00000045    0.00000573
     atom   19 type  1   force =    -0.00000003    0.00000013    0.00001614
     atom   20 type  1   force =     0.00000010    0.00000005    0.00001001
     atom   21 type  1   force =    -0.00000001   -0.00000012    0.00001012
     atom   22 type  1   force =    -0.00000053   -0.00000024   -0.00001029
     atom   23 type  1   force =    -0.00000014    0.00000041   -0.00000195
     atom   24 type  1   force =     0.00000012   -0.00000010    0.00001196
     atom   25 type  1   force =     0.00000047   -0.00000033   -0.00001036
     atom   26 type  1   force =     0.00000050    0.00000017   -0.00000776
     atom   27 type  1   force =     0.00000012   -0.00000004    0.00001621
     atom   28 type  1   force =    -0.00000014   -0.00000005    0.00001199
     atom   29 type  1   force =     0.00000000    0.00000000    0.00001677
     atom   30 type  1   force =    -0.00000027   -0.00000032   -0.00000194
     atom   31 type  1   force =    -0.00000011    0.00000015   -0.00002326
     atom   32 type  2   force =     0.00000011    0.00000000    0.00000884
     atom   33 type  2   force =    -0.00000005   -0.00000007    0.00000321
     atom   34 type  2   force =    -0.00000001    0.00000014   -0.00001266
     atom   35 type  2   force =    -0.00000009    0.00000009    0.00000716
     atom   36 type  2   force =    -0.00000012   -0.00000008   -0.00001287
     atom   37 type  2   force =    -0.00000002    0.00000008   -0.00002516
     atom   38 type  2   force =    -0.00000014    0.00000014    0.00000741
     atom   39 type  2   force =     0.00000011    0.00000002    0.00001611
     atom   40 type  2   force =     0.00000012    0.00000004    0.00000710
     atom   41 type  2   force =    -0.00000003   -0.00000013    0.00000708
     atom   42 type  2   force =    -0.00000019   -0.00000007   -0.00002248
     atom   43 type  2   force =    -0.00000018    0.00000022   -0.00001222
     atom   44 type  2   force =    -0.00000012   -0.00000001    0.00000798
     atom   45 type  2   force =     0.00000016   -0.00000013   -0.00002252
     atom   46 type  2   force =     0.00000012   -0.00000006   -0.00001280
     atom   47 type  2   force =    -0.00000004   -0.00000011    0.00001614
     atom   48 type  2   force =     0.00000004    0.00000011    0.00000798
     atom   49 type  2   force =     0.00000000   -0.00000000    0.00001291
     atom   50 type  2   force =    -0.00000010   -0.00000027   -0.00001225
     atom   51 type  2   force =    -0.00000006   -0.00000005   -0.00002504
     atom   52 type  2   force =    -0.00000003    0.00000008    0.00000317
     atom   53 type  2   force =     0.00000018    0.00000006    0.00000725
     atom   54 type  2   force =     0.00000028    0.00000004   -0.00001238
     atom   55 type  2   force =     0.00000007   -0.00000010    0.00000805
     atom   56 type  2   force =    -0.00000004   -0.00000019    0.00000735
     atom   57 type  2   force =    -0.00000005    0.00000009    0.00000889
     atom   58 type  2   force =    -0.00000005   -0.00000009    0.00000882
     atom   59 type  2   force =     0.00000007   -0.00000002   -0.00002493
     atom   60 type  2   force =     0.00000003    0.00000020   -0.00002239
     atom   61 type  2   force =    -0.00000007    0.00000009    0.00001612
     atom   62 type  2   force =     0.00000009   -0.00000001    0.00000305

     Total force =     0.017162     Total SCF correction =     0.000217

     DFT-D3 dispersion Force =     0.000102


     Computing stress (Cartesian axis) and pressure


     negative rho (up, down):  6.299E-03 6.299E-03
          total   stress  (Ry/bohr**3)                   (kbar)     P=       -9.95
  -0.00010133  -0.00000000   0.00000000          -14.91       -0.00        0.00
  -0.00000000  -0.00010133   0.00000000           -0.00      -14.91        0.00
   0.00000000   0.00000000  -0.00000032            0.00        0.00       -0.05

     kinetic stress (kbar)    856.30     -0.00     -0.00
                               -0.00    856.30      0.00
                               -0.00      0.00    961.23

     local   stress (kbar) -68779.31     -0.00      0.00
                               -0.00 -68779.31     -0.00
                                0.00     -0.00  68789.28

     nonloc. stress (kbar)     31.44      0.00     -0.00
                                0.00     31.44     -0.00
                               -0.00     -0.00     28.39

     hartree stress (kbar)  33986.82     -0.00     -0.00
                               -0.00  33986.82      0.00
                               -0.00      0.00 -33801.52

     exc-cor stress (kbar)    -93.27      0.00      0.00
                                0.00    -93.27      0.00
                                0.00      0.00   -101.41

     corecor stress (kbar)   -115.83     -0.00      0.00
                               -0.00   -115.83      0.00
                                0.00      0.00   -112.66

     ewald   stress (kbar)  34099.91      0.00     -0.00
                                0.00  34099.91      0.00
                               -0.00      0.00 -35763.35

     hubbard stress (kbar)      0.00      0.00      0.00
                                0.00      0.00      0.00
                                0.00      0.00      0.00

     DFT-D   stress (kbar)     -0.96     -0.00     -0.00
                               -0.00     -0.96     -0.00
                               -0.00     -0.00     -0.00

     XDM     stress (kbar)      0.00      0.00      0.00
                                0.00      0.00      0.00
                                0.00      0.00      0.00

     dft-nl  stress (kbar)      0.00      0.00      0.00
                                0.00      0.00      0.00
                                0.00      0.00      0.00

     TS-vdW  stress (kbar)      0.00      0.00      0.00
                                0.00      0.00      0.00
                                0.00      0.00      0.00

     MDB     stress (kbar)      0.00      0.00      0.00
                                0.00      0.00      0.00
                                0.00      0.00      0.00

     3D-RISM stress (kbar)      0.00      0.00      0.00
                                0.00      0.00      0.00
                                0.00      0.00      0.00


     Writing all to output data dir ./REDACTED_PATH :
     XML data file, charge density
     init_run     :     33.81s CPU     35.67s WALL (       1 calls)
     electrons    :  20231.05s CPU  21057.79s WALL (       1 calls)
     forces       :     17.85s CPU     18.83s WALL (       1 calls)
     force_dftd3  :      0.07s CPU      0.07s WALL (       1 calls)
     stress       :     35.11s CPU     36.33s WALL (       1 calls)
     stres_dftd3  :      0.08s CPU      0.08s WALL (       1 calls)

     Called by init_run:
     wfcinit      :     19.46s CPU     20.40s WALL (       1 calls)
     wfcinit:atom :      0.10s CPU      0.17s WALL (       2 calls)
     wfcinit:wfcr :     18.30s CPU     18.85s WALL (       2 calls)
     potinit      :      4.18s CPU      4.69s WALL (       1 calls)
     hinit0       :      3.62s CPU      3.74s WALL (       1 calls)

     Called by electrons:
     c_bands      :  13709.29s CPU  14250.23s WALL (     451 calls)
     sum_band     :   3732.00s CPU   3850.71s WALL (     451 calls)
     v_of_rho     :   1414.89s CPU   1541.04s WALL (     452 calls)
     v_h          :     71.17s CPU     75.75s WALL (     452 calls)
     v_xc         :   1349.60s CPU   1471.95s WALL (     454 calls)
     newd         :    420.49s CPU    432.81s WALL (     452 calls)
     PAW_pot      :    119.32s CPU    119.94s WALL (     452 calls)
     mix_rho      :    626.94s CPU    640.44s WALL (     451 calls)
     energy_dftd3 :      0.01s CPU      0.01s WALL (       1 calls)

     Called by c_bands:
     init_us_2    :    455.38s CPU    460.64s WALL (    1810 calls)
     cegterg      :  12877.04s CPU  13410.18s WALL (     902 calls)

     Called by sum_band:
     sum_band:wei :      0.26s CPU      0.26s WALL (     451 calls)
     sum_band:loo :   3073.18s CPU   3162.36s WALL (     451 calls)
     sum_band:buf :     50.39s CPU     51.03s WALL (     902 calls)
     sum_band:ini :    221.71s CPU    223.97s WALL (     902 calls)
     sum_band:cal :    455.94s CPU    459.19s WALL (     902 calls)
     sum_band:bec :      0.22s CPU      0.22s WALL (     902 calls)
     addusdens    :    453.06s CPU    462.64s WALL (     451 calls)
                                        0.00s GPU  (     451 calls)
     addusd:skk   :     32.37s CPU     33.06s WALL (     902 calls)
                                        0.00s GPU  (     902 calls)

     Called by *egterg:
     cdiaghg      :     42.88s CPU     43.55s WALL (    2681 calls)
     cegterg:over :    690.15s CPU    695.56s WALL (    1779 calls)
     cegterg:upda :    494.81s CPU    499.12s WALL (    1779 calls)
     cegterg:last :    650.12s CPU    658.21s WALL (    1199 calls)
     cdiaghg:chol :      3.36s CPU      3.40s WALL (    2681 calls)
     cdiaghg:inve :      0.69s CPU      0.70s WALL (    2681 calls)
     cdiaghg:para :     10.95s CPU     11.33s WALL (    5362 calls)
     h_psi        :   9625.17s CPU  10060.82s WALL (    2683 calls)
     s_psi        :    976.55s CPU    984.48s WALL (    2683 calls)
     g_psi        :     25.47s CPU     25.71s WALL (    1779 calls)

     Called by h_psi:
     h_psi:calbec :   1014.12s CPU   1021.69s WALL (    2683 calls)
     vloc_psi     :   7577.60s CPU   7930.16s WALL (    2683 calls)
                                        0.00s GPU  (    2683 calls)
     add_vuspsi   :    978.90s CPU    987.28s WALL (    2683 calls)

     General routines
     calbec       :   1487.22s CPU   1498.15s WALL (    3619 calls)
     fft          :   1036.69s CPU   1148.19s WALL (   11338 calls)
     ffts         :     44.08s CPU     49.97s WALL (    1806 calls)
     fftw         :   6834.31s CPU   7238.61s WALL (  754802 calls)
     interpolate  :    128.79s CPU    141.47s WALL (     904 calls)

     Parallel routines

     PAW routines
     PAW_pot      :    119.32s CPU    119.94s WALL (     452 calls)

     PWSCF        :  20318.09s CPU  21149.17s WALL


   This run was terminated on:  23:35:57  28Aug2026            

=------------------------------------------------------------------------------=
   JOB DONE.
=------------------------------------------------------------------------------=
Note: The following floating-point exceptions are signalling: IEEE_UNDERFLOW_FLAG IEEE_DENORMAL
Note: The following floating-point exceptions are signalling: IEEE_INVALID_FLAG IEEE_UNDERFLOW_FLAG IEEE_DENORMAL
Note: The following floating-point exceptions are signalling: IEEE_UNDERFLOW_FLAG IEEE_DENORMAL
Note: The following floating-point exceptions are signalling: IEEE_UNDERFLOW_FLAG IEEE_DENORMAL
Note: The following floating-point exceptions are signalling: IEEE_UNDERFLOW_FLAG IEEE_DENORMAL
Note: The following floating-point exceptions are signalling: IEEE_UNDERFLOW_FLAG IEEE_DENORMAL
Note: The following floating-point exceptions are signalling: IEEE_UNDERFLOW_FLAG IEEE_DENORMAL
Note: The following floating-point exceptions are signalling: IEEE_UNDERFLOW_FLAG IEEE_DENORMAL
Note: The following floating-point exceptions are signalling: IEEE_UNDERFLOW_FLAG IEEE_DENORMAL
Note: The following floating-point exceptions are signalling: IEEE_UNDERFLOW_FLAG IEEE_DENORMAL
Note: The following floating-point exceptions are signalling: IEEE_UNDERFLOW_FLAG IEEE_DENORMAL
Note: The following floating-point exceptions are signalling: IEEE_UNDERFLOW_FLAG IEEE_DENORMAL
Note: The following floating-point exceptions are signalling: IEEE_UNDERFLOW_FLAG IEEE_DENORMAL
Note: The following floating-point exceptions are signalling: IEEE_UNDERFLOW_FLAG IEEE_DENORMAL
Note: The following floating-point exceptions are signalling: IEEE_INVALID_FLAG IEEE_UNDERFLOW_FLAG IEEE_DENORMAL
Note: The following floating-point exceptions are signalling: IEEE_UNDERFLOW_FLAG IEEE_DENORMAL
Note: The following floating-point exceptions are signalling: IEEE_UNDERFLOW_FLAG IEEE_DENORMAL
Note: The following floating-point exceptions are signalling: IEEE_UNDERFLOW_FLAG IEEE_DENORMAL
Note: The following floating-point exceptions are signalling: IEEE_UNDERFLOW_FLAG IEEE_DENORMAL
Note: The following floating-point exceptions are signalling: IEEE_UNDERFLOW_FLAG IEEE_DENORMAL
Note: The following floating-point exceptions are signalling: IEEE_UNDERFLOW_FLAG IEEE_DENORMAL
Note: The following floating-point exceptions are signalling: IEEE_UNDERFLOW_FLAG IEEE_DENORMAL
Note: The following floating-point exceptions are signalling: IEEE_UNDERFLOW_FLAG IEEE_DENORMAL
Note: The following floating-point exceptions are signalling: IEEE_UNDERFLOW_FLAG IEEE_DENORMAL
Note: The following floating-point exceptions are signalling: IEEE_UNDERFLOW_FLAG IEEE_DENORMAL
Note: The following floating-point exceptions are signalling: IEEE_UNDERFLOW_FLAG IEEE_DENORMAL
Note: The following floating-point exceptions are signalling: IEEE_UNDERFLOW_FLAG IEEE_DENORMAL
Note: The following floating-point exceptions are signalling: IEEE_UNDERFLOW_FLAG IEEE_DENORMAL
Note: The following floating-point exceptions are signalling: IEEE_UNDERFLOW_FLAG IEEE_DENORMAL
Note: The following floating-point exceptions are signalling: IEEE_UNDERFLOW_FLAG IEEE_DENORMAL
Note: The following floating-point exceptions are signalling: IEEE_UNDERFLOW_FLAG IEEE_DENORMAL
Note: The following floating-point exceptions are signalling: IEEE_UNDERFLOW_FLAG IEEE_DENORMAL
Note: The following floating-point exceptions are signalling: IEEE_INVALID_FLAG IEEE_UNDERFLOW_FLAG IEEE_DENORMAL
Note: The following floating-point exceptions are signalling: IEEE_UNDERFLOW_FLAG IEEE_DENORMAL
Note: The following floating-point exceptions are signalling: IEEE_UNDERFLOW_FLAG IEEE_DENORMAL
Note: The following floating-point exceptions are signalling: IEEE_UNDERFLOW_FLAG IEEE_DENORMAL
Note: The following floating-point exceptions are signalling: IEEE_UNDERFLOW_FLAG IEEE_DENORMAL
Note: The following floating-point exceptions are signalling: IEEE_UNDERFLOW_FLAG IEEE_DENORMAL
Note: The following floating-point exceptions are signalling: IEEE_UNDERFLOW_FLAG IEEE_DENORMAL
Note: The following floating-point exceptions are signalling: IEEE_UNDERFLOW_FLAG IEEE_DENORMAL
Note: The following floating-point exceptions are signalling: IEEE_UNDERFLOW_FLAG IEEE_DENORMAL
Note: The following floating-point exceptions are signalling: IEEE_UNDERFLOW_FLAG IEEE_DENORMAL
Note: The following floating-point exceptions are signalling: IEEE_UNDERFLOW_FLAG IEEE_DENORMAL
Note: The following floating-point exceptions are signalling: IEEE_UNDERFLOW_FLAG IEEE_DENORMAL
Note: The following floating-point exceptions are signalling: IEEE_INVALID_FLAG IEEE_UNDERFLOW_FLAG IEEE_DENORMAL
Note: The following floating-point exceptions are signalling: IEEE_UNDERFLOW_FLAG IEEE_DENORMAL
Note: The following floating-point exceptions are signalling: IEEE_UNDERFLOW_FLAG IEEE_DENORMAL
Note: The following floating-point exceptions are signalling: IEEE_UNDERFLOW_FLAG IEEE_DENORMAL
