
     Program PWSCF v.7.5 starts on 31Aug2026 at  9:10:41 

     This program is part of the open-source Quantum ESPRESSO suite
     for quantum simulation of materials; please cite
         "P. Giannozzi et al., J. Phys.:Condens. Matter 21 395502 (2009);
         "P. Giannozzi et al., J. Phys.:Condens. Matter 29 465901 (2017);
         "P. Giannozzi et al., J. Chem. Phys. 152 154105 (2020);
          URL http://www.quantum-espresso.org", 
     in publications or presentations arising from this work. More details at
     http://www.quantum-espresso.org/quote

     Parallel version (MPI & OpenMP), running on     384 processor cores
     Number of MPI processes:               384
     Threads/MPI process:                     1

     MPI processes distributed on     2 nodes
     337719 MiB available memory on the printing compute node when the environment starts

     Reading input from ./REDACTED_PATH

     Current dimensions of program PWSCF are:
     Max number of different atomic species (ntypx) = 10
     Max number of k-points (npk) =  40000
     Max angular momentum in pseudopotentials (lmaxx) =  4
     file Al.pbe-n-kjpaw_psl.1.0.0.UPF: wavefunction(s)  3S 3P renormalized
     file O.pbe-n-kjpaw_psl.0.1.UPF: wavefunction(s)  2P renormalized
     file Nb.pbe-spn-kjpaw_psl.0.3.0.UPF: wavefunction(s)  4S 4P renormalized

     K-points division:     npool     =       4
     R & G space division:  proc/nbgrp/npool/nimage =      96
     Subspace diagonalization in iterative solution of the eigenvalue problem:
     one sub-group per band group will be used
     ELPA distributed-memory algorithm (size of sub-group:  7*  7 procs)


     Parallelization info
     --------------------
     sticks:   dense  smooth     PW     G-vecs:    dense   smooth      PW
     Min         209     104     27                75427    26664    3659
     Max         210     105     28                75451    26685    3678
     Sum       20065   10033   2677              7241989  2560523  352613

     Using Slab Decomposition


     Title: 
     K2 free-spin continuation uncapped certify                                 


     bravais-lattice index     =            0
     lattice parameter (alat)  =      26.9796  a.u.
     unit-cell volume          =   53606.0115 (a.u.)^3
     number of atoms/cell      =          183
     number of atomic types    =            4
     number of electrons       =      1048.00
     number of Kohn-Sham states=          650
     kinetic-energy cutoff     =      50.0000  Ry
     charge density cutoff     =     400.0000  Ry
     scf convergence threshold =      1.0E-08
     mixing beta               =       0.0030
     number of iterations used =           24  local-TF  mixing
     Exchange-correlation= SLA  PW   PBE  PBE
                           (   1   4   3   4   0   0   0)

     celldm(1)=  26.979621  celldm(2)=   0.000000  celldm(3)=   0.000000
     celldm(4)=   0.000000  celldm(5)=   0.000000  celldm(6)=   0.000000

     crystal axes: (cart. coord. in units of alat)
               a(1) = (   1.000000   0.000000   0.000000 )  
               a(2) = (  -0.500000   0.866025   0.000000 )  
               a(3) = (   0.000000   0.000000   3.151923 )  

     reciprocal axes: (cart. coord. in units 2 pi/alat)
               b(1) = (  1.000000  0.577351 -0.000000 )  
               b(2) = (  0.000000  1.154701  0.000000 )  
               b(3) = (  0.000000 -0.000000  0.317267 )  


     PseudoPot. # 1 for Al read from file:
     ./REDACTED_PATH
     MD5 check sum: cfc449ca30b5f3223ec38ddd88ac046d
     Pseudo is Projector augmented-wave + core cor, Zval =  3.0
     Generated using "atomic" code by A. Dal Corso  v.5.1
     Shape of augmentation charge: PSQ
     Using radial grid of 1135 points,  6 beta functions with: 
                l(1) =   0
                l(2) =   0
                l(3) =   1
                l(4) =   1
                l(5) =   2
                l(6) =   2
     Q(r) pseudized with 0 coefficients 


     PseudoPot. # 2 for O  read from file:
     ./REDACTED_PATH
     MD5 check sum: 0234752ac141de4415c5fc33072bef88
     Pseudo is Projector augmented-wave + core cor, Zval =  6.0
     Generated using "atomic" code by A. Dal Corso  v.5.0.99 svn rev. 10869
     Shape of augmentation charge: BESSEL
     Using radial grid of 1095 points,  4 beta functions with: 
                l(1) =   0
                l(2) =   0
                l(3) =   1
                l(4) =   1
     Q(r) pseudized with 0 coefficients 


     PseudoPot. # 3 for Nb read from file:
     ./REDACTED_PATH
     MD5 check sum: 411d72ad547312f8017e2943ceca08cc
     Pseudo is Projector augmented-wave + core cor, Zval = 13.0
     Generated using "atomic" code by A. Dal Corso  v.5.0.99 svn rev. 10869
     Shape of augmentation charge: PSQ
     Using radial grid of 1227 points,  6 beta functions with: 
                l(1) =   0
                l(2) =   0
                l(3) =   1
                l(4) =   1
                l(5) =   2
                l(6) =   2
     Q(r) pseudized with 0 coefficients 


     PseudoPot. # 4 for Se read from file:
     ./REDACTED_PATH
     MD5 check sum: 1b3568f3a8ae88f9a2a0ad0698632c85
     Pseudo is Ultrasoft + core correction, Zval =  6.0
     Generated by new atomic code, or converted to UPF format
     Using radial grid of  877 points,  6 beta functions with: 
                l(1) =   0
                l(2) =   0
                l(3) =   1
                l(4) =   1
                l(5) =   2
                l(6) =   2
     Q(r) pseudized with  8 coefficients,  rinner =    1.300   1.300   1.300
                                                       1.300   1.300

     atomic species   valence    mass     pseudopotential
     Al                3.00    26.98154     Al( 1.00)
     O                 6.00    15.99900     O ( 1.00)
     Nb               13.00    92.90637     Nb( 1.00)
     Se                6.00    78.97100     Se( 1.00)

     Starting magnetic structure 
     atomic species   magnetization
     Al              0.000
     O               0.000
     Nb              0.020
     Se              0.000

     No symmetry found


                                    s                        frac. trans.

      isym =  1     identity                                     

 cryst.   s( 1) = (     1          0          0      )
                  (     0          1          0      )
                  (     0          0          1      )

 cart.    s( 1) = (  1.0000000  0.0000000  0.0000000 )
                  (  0.0000000  1.0000000  0.0000000 )
                  (  0.0000000  0.0000000  1.0000000 )


   Cartesian axes

     site n.     atom                  positions (alat units)
         1        Al     tau(   1) = (   0.1666667   0.0962250   0.8513798  )
         2        Al     tau(   2) = (   0.0000000   0.1924501   0.9841938  )
         3        Al     tau(   3) = (   0.0000000   0.0000000   0.8177469  )
         4        Al     tau(   4) = (   0.0000000   0.0000000   1.0026577  )
         5        Al     tau(   5) = (   0.1666667   0.0962250   1.0737814  )
         6        Al     tau(   6) = (   0.0000000   0.1924501   0.7004272  )
         7        O      tau(   7) = (   0.2687667   0.0962250   0.7590871  )
         8        O      tau(   8) = (   0.1156167   0.1846462   0.7590871  )
         9        O      tau(   9) = (   0.1156167   0.0078039   0.7590871  )
        10        O      tau(  10) = (   0.1047547   0.1975389   1.0655402  )
        11        O      tau(  11) = (  -0.0567844   0.2806259   1.0655402  )
        12        O      tau(  12) = (  -0.0479703   0.0991855   1.0655402  )
        13        O      tau(  13) = (   0.2293632   0.0007279   0.9135286  )
        14        O      tau(  14) = (   0.8846880   0.1982704   0.9135286  )
        15        O      tau(  15) = (   0.0526155   0.0896768   0.9135286  )
        16        Al     tau(  16) = (  -0.0000000   0.3849000   0.8513798  )
        17        Al     tau(  17) = (  -0.1666667   0.4811251   0.9841938  )
        18        Al     tau(  18) = (  -0.1666667   0.2886750   0.8177469  )
        19        Al     tau(  19) = (  -0.1666667   0.2886750   1.0026577  )
        20        Al     tau(  20) = (  -0.0000000   0.3849000   1.0737814  )
        21        Al     tau(  21) = (  -0.1666667   0.4811251   0.7004272  )
        22        O      tau(  22) = (   0.1021000   0.3849000   0.7590871  )
        23        O      tau(  23) = (  -0.0510500   0.4733212   0.7590871  )
        24        O      tau(  24) = (  -0.0510500   0.2964789   0.7590871  )
        25        O      tau(  25) = (  -0.0619120   0.4862139   1.0655402  )
        26        O      tau(  26) = (  -0.2234510   0.5693009   1.0655402  )
        27        O      tau(  27) = (  -0.2146370   0.3878605   1.0655402  )
        28        O      tau(  28) = (   0.0626965   0.2894029   0.9135286  )
        29        O      tau(  29) = (   0.7180214   0.4869454   0.9135286  )
        30        O      tau(  30) = (  -0.1140512   0.3783518   0.9135286  )
        31        Al     tau(  31) = (  -0.1666667   0.6735750   0.8513798  )
        32        Al     tau(  32) = (  -0.3333333   0.7698001   0.9841938  )
        33        Al     tau(  33) = (  -0.3333333   0.5773500   0.8177469  )
        34        Al     tau(  34) = (  -0.3333333   0.5773500   1.0026577  )
        35        Al     tau(  35) = (  -0.1666667   0.6735750   1.0737814  )
        36        Al     tau(  36) = (  -0.3333333   0.7698001   0.7004272  )
        37        O      tau(  37) = (  -0.0645667   0.6735750   0.7590871  )
        38        O      tau(  38) = (  -0.2177167   0.7619962   0.7590871  )
        39        O      tau(  39) = (  -0.2177167   0.5851539   0.7590871  )
        40        O      tau(  40) = (  -0.2285787   0.7748889   1.0655402  )
        41        O      tau(  41) = (  -0.3901177   0.8579759   1.0655402  )
        42        O      tau(  42) = (  -0.3813037   0.6765355   1.0655402  )
        43        O      tau(  43) = (  -0.1039702   0.5780779   0.9135286  )
        44        O      tau(  44) = (   0.5513547   0.7756204   0.9135286  )
        45        O      tau(  45) = (  -0.2807179   0.6670268   0.9135286  )
        46        Al     tau(  46) = (   0.5000000   0.0962250   0.8513798  )
        47        Al     tau(  47) = (   0.3333333   0.1924501   0.9841938  )
        48        Al     tau(  48) = (   0.3333333   0.0000000   0.8177469  )
        49        Al     tau(  49) = (   0.3333333   0.0000000   1.0026577  )
        50        Al     tau(  50) = (   0.5000000   0.0962250   1.0737814  )
        51        Al     tau(  51) = (   0.3333333   0.1924501   0.7004272  )
        52        O      tau(  52) = (   0.6021000   0.0962250   0.7590871  )
        53        O      tau(  53) = (   0.4489500   0.1846462   0.7590871  )
        54        O      tau(  54) = (   0.4489500   0.0078039   0.7590871  )
        55        O      tau(  55) = (   0.4380880   0.1975389   1.0655402  )
        56        O      tau(  56) = (   0.2765490   0.2806259   1.0655402  )
        57        O      tau(  57) = (   0.2853630   0.0991855   1.0655402  )
        58        O      tau(  58) = (   0.5626965   0.0007279   0.9135286  )
        59        O      tau(  59) = (   0.2180214   0.1982704   0.9135286  )
        60        O      tau(  60) = (   0.3859488   0.0896768   0.9135286  )
        61        Al     tau(  61) = (   0.3333333   0.3849000   0.8513798  )
        62        Al     tau(  62) = (   0.1666667   0.4811251   0.9841938  )
        63        Al     tau(  63) = (   0.1666667   0.2886750   0.8177469  )
        64        Al     tau(  64) = (   0.1666667   0.2886750   1.0026577  )
        65        Al     tau(  65) = (   0.3333333   0.3849000   1.0737814  )
        66        Al     tau(  66) = (   0.1666667   0.4811251   0.7004272  )
        67        O      tau(  67) = (   0.4354333   0.3849000   0.7590871  )
        68        O      tau(  68) = (   0.2822833   0.4733212   0.7590871  )
        69        O      tau(  69) = (   0.2822833   0.2964789   0.7590871  )
        70        O      tau(  70) = (   0.2714213   0.4862139   1.0655402  )
        71        O      tau(  71) = (   0.1098823   0.5693009   1.0655402  )
        72        O      tau(  72) = (   0.1186963   0.3878605   1.0655402  )
        73        O      tau(  73) = (   0.3960298   0.2894029   0.9135286  )
        74        O      tau(  74) = (   0.0513547   0.4869454   0.9135286  )
        75        O      tau(  75) = (   0.2192821   0.3783518   0.9135286  )
        76        Al     tau(  76) = (   0.1666667   0.6735750   0.8513798  )
        77        Al     tau(  77) = (   0.0000000   0.7698001   0.9841938  )
        78        Al     tau(  78) = (   0.0000000   0.5773500   0.8177469  )
        79        Al     tau(  79) = (   0.0000000   0.5773500   1.0026577  )
        80        Al     tau(  80) = (   0.1666667   0.6735750   1.0737814  )
        81        Al     tau(  81) = (   0.0000000   0.7698001   0.7004272  )
        82        O      tau(  82) = (   0.2687667   0.6735750   0.7590871  )
        83        O      tau(  83) = (   0.1156167   0.7619962   0.7590871  )
        84        O      tau(  84) = (   0.1156167   0.5851539   0.7590871  )
        85        O      tau(  85) = (   0.1047547   0.7748889   1.0655402  )
        86        O      tau(  86) = (  -0.0567844   0.8579759   1.0655402  )
        87        O      tau(  87) = (  -0.0479703   0.6765355   1.0655402  )
        88        O      tau(  88) = (   0.2293632   0.5780779   0.9135286  )
        89        O      tau(  89) = (  -0.1153120   0.7756204   0.9135286  )
        90        O      tau(  90) = (   0.0526155   0.6670268   0.9135286  )
        91        Al     tau(  91) = (   0.8333333   0.0962250   0.8513798  )
        92        Al     tau(  92) = (   0.6666667   0.1924501   0.9841938  )
        93        Al     tau(  93) = (   0.6666667   0.0000000   0.8177469  )
        94        Al     tau(  94) = (   0.6666667   0.0000000   1.0026577  )
        95        Al     tau(  95) = (   0.8333333   0.0962250   1.0737814  )
        96        Al     tau(  96) = (   0.6666667   0.1924501   0.7004272  )
        97        O      tau(  97) = (   0.9354333   0.0962250   0.7590871  )
        98        O      tau(  98) = (   0.7822833   0.1846462   0.7590871  )
        99        O      tau(  99) = (   0.7822833   0.0078039   0.7590871  )
       100        O      tau( 100) = (   0.7714213   0.1975389   1.0655402  )
       101        O      tau( 101) = (   0.6098823   0.2806259   1.0655402  )
       102        O      tau( 102) = (   0.6186963   0.0991855   1.0655402  )
       103        O      tau( 103) = (   0.8960298   0.0007279   0.9135286  )
       104        O      tau( 104) = (   0.5513547   0.1982704   0.9135286  )
       105        O      tau( 105) = (   0.7192821   0.0896768   0.9135286  )
       106        Al     tau( 106) = (   0.6666667   0.3849000   0.8513798  )
       107        Al     tau( 107) = (   0.5000000   0.4811251   0.9841938  )
       108        Al     tau( 108) = (   0.5000000   0.2886750   0.8177469  )
       109        Al     tau( 109) = (   0.5000000   0.2886750   1.0026577  )
       110        Al     tau( 110) = (   0.6666667   0.3849000   1.0737814  )
       111        Al     tau( 111) = (   0.5000000   0.4811251   0.7004272  )
       112        O      tau( 112) = (   0.7687667   0.3849000   0.7590871  )
       113        O      tau( 113) = (   0.6156167   0.4733212   0.7590871  )
       114        O      tau( 114) = (   0.6156167   0.2964789   0.7590871  )
       115        O      tau( 115) = (   0.6047547   0.4862139   1.0655402  )
       116        O      tau( 116) = (   0.4432156   0.5693009   1.0655402  )
       117        O      tau( 117) = (   0.4520297   0.3878605   1.0655402  )
       118        O      tau( 118) = (   0.7293632   0.2894029   0.9135286  )
       119        O      tau( 119) = (   0.3846880   0.4869454   0.9135286  )
       120        O      tau( 120) = (   0.5526155   0.3783518   0.9135286  )
       121        Al     tau( 121) = (   0.5000000   0.6735750   0.8513798  )
       122        Al     tau( 122) = (   0.3333333   0.7698001   0.9841938  )
       123        Al     tau( 123) = (   0.3333333   0.5773500   0.8177469  )
       124        Al     tau( 124) = (   0.3333333   0.5773500   1.0026577  )
       125        Al     tau( 125) = (   0.5000000   0.6735750   1.0737814  )
       126        Al     tau( 126) = (   0.3333333   0.7698001   0.7004272  )
       127        O      tau( 127) = (   0.6021000   0.6735750   0.7590871  )
       128        O      tau( 128) = (   0.4489500   0.7619962   0.7590871  )
       129        O      tau( 129) = (   0.4489500   0.5851539   0.7590871  )
       130        O      tau( 130) = (   0.4380880   0.7748889   1.0655402  )
       131        O      tau( 131) = (   0.2765490   0.8579759   1.0655402  )
       132        O      tau( 132) = (   0.2853630   0.6765355   1.0655402  )
       133        O      tau( 133) = (   0.5626965   0.5780779   0.9135286  )
       134        O      tau( 134) = (   0.2180214   0.7756204   0.9135286  )
       135        O      tau( 135) = (   0.3859488   0.6670268   0.9135286  )
       136        Nb     tau( 136) = (   0.1666818   0.0962262   1.3928999  )
       137        Se     tau( 137) = (   0.1662111   0.2403240   1.5087056  )
       138        Se     tau( 138) = (   0.1671340   0.2401086   1.2774889  )
       139        Nb     tau( 139) = (   0.0416277   0.3114126   1.3914489  )
       140        Se     tau( 140) = (   0.0426891   0.4578421   1.5039540  )
       141        Se     tau( 141) = (   0.0399368   0.4545423   1.2740581  )
       142        Nb     tau( 142) = (  -0.0843591   0.5286109   1.3896145  )
       143        Se     tau( 143) = (  -0.0820192   0.6735507   1.5050556  )
       144        Se     tau( 144) = (  -0.0874972   0.6732950   1.2754832  )
       145        Nb     tau( 145) = (  -0.2095591   0.7463934   1.3930791  )
       146        Se     tau( 146) = (   0.2917356   0.0244224   1.5087437  )
       147        Se     tau( 147) = (   0.2909976   0.0238684   1.2775805  )
       148        Nb     tau( 148) = (   0.4155057   0.0969538   1.3915391  )
       149        Se     tau( 149) = (   0.4170579   0.2403859   1.5084472  )
       150        Se     tau( 150) = (   0.4163197   0.2413736   1.2774329  )
       151        Nb     tau( 151) = (   0.2916293   0.3113065   1.3930209  )
       152        Se     tau( 152) = (   0.2909552   0.4581913   1.5049851  )
       153        Se     tau( 153) = (   0.2940047   0.4535881   1.2754146  )
       154        Nb     tau( 154) = (   0.1668601   0.5274992   1.3865517  )
       155        Se     tau( 155) = (   0.1666528   0.6734722   1.4998410  )
       156        Se     tau( 156) = (   0.1666658   0.6735591   1.2724212  )
       157        Nb     tau( 157) = (   0.0400960   0.7463830   1.3866370  )
       158        Se     tau( 158) = (   0.5418688   0.0227255   1.5040237  )
       159        Se     tau( 159) = (   0.5403026   0.0269424   1.2742264  )
       160        Nb     tau( 160) = (   0.6666629   0.0974475   1.3897105  )
       161        Se     tau( 161) = (   0.6670268   0.2400398   1.5070972  )
       162        Se     tau( 162) = (   0.6672509   0.2415882   1.2761461  )
       163        Nb     tau( 163) = (   0.5416855   0.3125482   1.3914170  )
       164        Se     tau( 164) = (   0.5409572   0.4570002   1.5071103  )
       165        Se     tau( 165) = (   0.5422099   0.4561638   1.2760927  )
       166        Nb     tau( 166) = (   0.4176810   0.5286071   1.3896009  )
       167        Se     tau( 167) = (   0.4154589   0.6739054   1.5040380  )
       168        Se     tau( 168) = (   0.4197599   0.6733256   1.2741688  )
       169        Nb     tau( 169) = (   0.2930404   0.7467380   1.3866413  )
       170        Se     tau( 170) = (   0.7910517   0.0228267   1.5050716  )
       171        Se     tau( 171) = (   0.7934915   0.0279674   1.2755456  )
       172        Nb     tau( 172) = (   0.9179239   0.0969241   1.3930981  )
       173        Se     tau( 173) = (  -0.0834085   0.2409880   1.5084365  )
       174        Se     tau( 174) = (  -0.0838095   0.2398993   1.2774511  )
       175        Nb     tau( 175) = (   0.7918596   0.3129202   1.3914154  )
       176        Se     tau( 176) = (  -0.2080058   0.4575643   1.5071335  )
       177        Se     tau( 177) = (  -0.2094467   0.4571253   1.2760845  )
       178        Nb     tau( 178) = (   0.6664680   0.5292888   1.3914751  )
       179        Se     tau( 179) = (  -0.3336377   0.6732043   1.5085083  )
       180        Se     tau( 180) = (  -0.3325301   0.6735377   1.2774706  )
       181        Nb     tau( 181) = (   0.5428415   0.7463150   1.3915527  )
       182        Se     tau( 182) = (   0.0420279   0.0236896   1.5087409  )
       183        Se     tau( 183) = (   0.0418836   0.0247684   1.2775798  )

     --------------------------------------------
     DFT-D3 Dispersion Correction (3-body terms):
     --------------------------------------------
       Reference C6 values for interpolation: 

         atom   Coordination number   C6
         O          0.000            31.01
         O          0.993            25.63
         O          1.989            20.74
         Al         0.000          1081.08
         Al         0.965           875.51
         Al         1.931           513.50
         Al         2.915           307.19
         Se         0.000           427.35
         Se         0.990           427.57
         Se         1.981           421.05
         Nb         0.000          2950.50
         Nb         1.954          1161.16
         Nb         2.922           857.79

       Values used:

         atom   Coordination number  R0_AB[au]  C6      C8
         Al         9.714            3.789    307.19  29441.29
         Al        10.549            3.789    307.19  29441.29
         Al        10.102            3.789    307.19  29441.29
         Al        11.461            3.789    307.19  29441.29
         Al         7.122            3.789    307.19  29441.29
         Al         4.169            3.789    307.19  29441.31
         O          2.996            2.345     20.74    418.58
         O          2.996            2.345     20.74    418.58
         O          2.996            2.345     20.74    418.58
         O          3.059            2.345     20.74    418.58
         O          3.064            2.345     20.74    418.58
         O          3.055            2.345     20.74    418.58
         O          3.992            2.345     20.74    418.58
         O          3.992            2.345     20.74    418.58
         O          3.992            2.345     20.74    418.58
         Al         9.714            3.789    307.19  29441.29
         Al        10.552            3.789    307.19  29441.29
         Al        10.102            3.789    307.19  29441.29
         Al        11.457            3.789    307.19  29441.29
         Al         7.332            3.789    307.19  29441.29
         Al         4.169            3.789    307.19  29441.31
         O          2.996            2.345     20.74    418.58
         O          2.996            2.345     20.74    418.58
         O          2.996            2.345     20.74    418.58
         O          3.057            2.345     20.74    418.58
         O          3.056            2.345     20.74    418.58
         O          3.061            2.345     20.74    418.58
         O          3.992            2.345     20.74    418.58
         O          3.992            2.345     20.74    418.58
         O          3.992            2.345     20.74    418.58
         Al         9.714            3.789    307.19  29441.29
         Al        10.549            3.789    307.19  29441.29
         Al        10.102            3.789    307.19  29441.29
         Al        11.457            3.789    307.19  29441.29
         Al         7.318            3.789    307.19  29441.29
         Al         4.169            3.789    307.19  29441.31
         O          2.996            2.345     20.74    418.58
         O          2.996            2.345     20.74    418.58
         O          2.996            2.345     20.74    418.58
         O          3.055            2.345     20.74    418.58
         O          3.059            2.345     20.74    418.58
         O          3.064            2.345     20.74    418.58
         O          3.992            2.345     20.74    418.58
         O          3.992            2.345     20.74    418.58
         O          3.992            2.345     20.74    418.58
         Al         9.714            3.789    307.19  29441.29
         Al        10.549            3.789    307.19  29441.29
         Al        10.102            3.789    307.19  29441.29
         Al        11.461            3.789    307.19  29441.29
         Al         7.330            3.789    307.19  29441.29
         Al         4.169            3.789    307.19  29441.31
         O          2.996            2.345     20.74    418.58
         O          2.996            2.345     20.74    418.58
         O          2.996            2.345     20.74    418.58
         O          3.064            2.345     20.74    418.58
         O          3.055            2.345     20.74    418.58
         O          3.059            2.345     20.74    418.58
         O          3.992            2.345     20.74    418.58
         O          3.992            2.345     20.74    418.58
         O          3.992            2.345     20.74    418.58
         Al         9.714            3.789    307.19  29441.29
         Al        10.550            3.789    307.19  29441.29
         Al        10.102            3.789    307.19  29441.29
         Al        11.461            3.789    307.19  29441.29
         Al         7.319            3.789    307.19  29441.29
         Al         4.169            3.789    307.19  29441.31
         O          2.996            2.345     20.74    418.58
         O          2.996            2.345     20.74    418.58
         O          2.996            2.345     20.74    418.58
         O          3.068            2.345     20.74    418.58
         O          3.057            2.345     20.74    418.58
         O          3.057            2.345     20.74    418.58
         O          3.992            2.345     20.74    418.58
         O          3.992            2.345     20.74    418.58
         O          3.992            2.345     20.74    418.58
         Al         9.714            3.789    307.19  29441.29
         Al        10.550            3.789    307.19  29441.29
         Al        10.102            3.789    307.19  29441.29
         Al        11.457            3.789    307.19  29441.29
         Al         7.621            3.789    307.19  29441.29
         Al         4.169            3.789    307.19  29441.31
         O          2.996            2.345     20.74    418.58
         O          2.996            2.345     20.74    418.58
         O          2.996            2.345     20.74    418.58
         O          3.057            2.345     20.74    418.58
         O          3.057            2.345     20.74    418.58
         O          3.068            2.345     20.74    418.58
         O          3.992            2.345     20.74    418.58
         O          3.992            2.345     20.74    418.58
         O          3.992            2.345     20.74    418.58
         Al         9.714            3.789    307.19  29441.29
         Al        10.552            3.789    307.19  29441.29
         Al        10.102            3.789    307.19  29441.29
         Al        11.457            3.789    307.19  29441.29
         Al         7.318            3.789    307.19  29441.29
         Al         4.169            3.789    307.19  29441.31
         O          2.996            2.345     20.74    418.58
         O          2.996            2.345     20.74    418.58
         O          2.996            2.345     20.74    418.58
         O          3.056            2.345     20.74    418.58
         O          3.061            2.345     20.74    418.58
         O          3.057            2.345     20.74    418.58
         O          3.992            2.345     20.74    418.58
         O          3.992            2.345     20.74    418.58
         O          3.992            2.345     20.74    418.58
         Al         9.714            3.789    307.19  29441.29
         Al        10.552            3.789    307.19  29441.29
         Al        10.102            3.789    307.19  29441.29
         Al        11.457            3.789    307.19  29441.29
         Al         7.135            3.789    307.19  29441.29
         Al         4.169            3.789    307.19  29441.31
         O          2.996            2.345     20.74    418.58
         O          2.996            2.345     20.74    418.58
         O          2.996            2.345     20.74    418.58
         O          3.061            2.345     20.74    418.58
         O          3.057            2.345     20.74    418.58
         O          3.056            2.345     20.74    418.58
         O          3.992            2.345     20.74    418.58
         O          3.992            2.345     20.74    418.58
         O          3.992            2.345     20.74    418.58
         Al         9.714            3.789    307.19  29441.29
         Al        10.550            3.789    307.19  29441.29
         Al        10.102            3.789    307.19  29441.29
         Al        11.457            3.789    307.19  29441.29
         Al         7.330            3.789    307.19  29441.29
         Al         4.169            3.789    307.19  29441.31
         O          2.996            2.345     20.74    418.58
         O          2.996            2.345     20.74    418.58
         O          2.996            2.345     20.74    418.58
         O          3.057            2.345     20.74    418.58
         O          3.068            2.345     20.74    418.58
         O          3.057            2.345     20.74    418.58
         O          3.992            2.345     20.74    418.58
         O          3.992            2.345     20.74    418.58
         O          3.992            2.345     20.74    418.58
         Nb         8.739            3.647    857.79 111659.18
         Se         3.447            3.332    421.05  29958.36
         Se         3.600            3.332    421.05  29958.36
         Nb         8.671            3.647    857.79 111659.18
         Se         3.469            3.332    421.05  29958.36
         Se         3.854            3.332    421.05  29958.36
         Nb         8.590            3.647    857.79 111659.18
         Se         3.465            3.332    421.05  29958.36
         Se         3.864            3.332    421.05  29958.36
         Nb         8.670            3.647    857.79 111659.18
         Se         3.447            3.332    421.05  29958.36
         Se         3.600            3.332    421.05  29958.36
         Nb         8.668            3.647    857.79 111659.18
         Se         3.443            3.332    421.05  29958.36
         Se         3.602            3.332    421.05  29958.36
         Nb         8.673            3.647    857.79 111659.18
         Se         3.466            3.332    421.05  29958.36
         Se         3.866            3.332    421.05  29958.36
         Nb         8.508            3.647    857.79 111659.18
         Se         3.506            3.332    421.05  29958.36
         Se         4.145            3.332    421.05  29958.36
         Nb         8.504            3.647    857.79 111659.18
         Se         3.468            3.332    421.05  29958.36
         Se         3.852            3.332    421.05  29958.36
         Nb         8.585            3.647    857.79 111659.18
         Se         3.445            3.332    421.05  29958.36
         Se         3.607            3.332    421.05  29958.36
         Nb         8.656            3.647    857.79 111659.18
         Se         3.445            3.332    421.05  29958.36
         Se         3.606            3.332    421.05  29958.36
         Nb         8.590            3.647    857.79 111659.18
         Se         3.469            3.332    421.05  29958.36
         Se         3.852            3.332    421.05  29958.36
         Nb         8.504            3.647    857.79 111659.18
         Se         3.465            3.332    421.05  29958.36
         Se         3.864            3.332    421.05  29958.36
         Nb         8.669            3.647    857.79 111659.18
         Se         3.443            3.332    421.05  29958.36
         Se         3.603            3.332    421.05  29958.36
         Nb         8.656            3.647    857.79 111659.18
         Se         3.445            3.332    421.05  29958.36
         Se         3.606            3.332    421.05  29958.36
         Nb         8.657            3.647    857.79 111659.18
         Se         3.443            3.332    421.05  29958.36
         Se         3.602            3.332    421.05  29958.36
         Nb         8.668            3.647    857.79 111659.18
         Se         3.447            3.332    421.05  29958.36
         Se         3.600            3.332    421.05  29958.36

         Molecular C6 ( Ry / a.u.^6 ) =   5799733.52


   Crystallographic axes

     site n.     atom                  positions (cryst. coord.)
         1        Al     tau(   1) = (  0.2222222  0.1111112  0.2701144  )
         2        Al     tau(   2) = (  0.1111112  0.2222223  0.3122519  )
         3        Al     tau(   3) = (  0.0000000  0.0000000  0.2594438  )
         4        Al     tau(   4) = (  0.0000000  0.0000000  0.3181099  )
         5        Al     tau(   5) = (  0.2222222  0.1111112  0.3406750  )
         6        Al     tau(   6) = (  0.1111112  0.2222223  0.2222222  )
         7        O      tau(   7) = (  0.3243222  0.1111112  0.2408330  )
         8        O      tau(   8) = (  0.2222223  0.2132112  0.2408330  )
         9        O      tau(   9) = (  0.1201222  0.0090111  0.2408330  )
        10        O      tau(  10) = (  0.2188039  0.2280983  0.3380604  )
        11        O      tau(  11) = (  0.1052352  0.3240390  0.3380604  )
        12        O      tau(  12) = (  0.0092945  0.1145296  0.3380604  )
        13        O      tau(  13) = (  0.2297834  0.0008405  0.2898322  )
        14        O      tau(  14) = (  0.9991595  0.2289430  0.2898322  )
        15        O      tau(  15) = (  0.1043904  0.1035500  0.2898322  )
        16        Al     tau(  16) = (  0.2222222  0.4444445  0.2701144  )
        17        Al     tau(  17) = (  0.1111112  0.5555557  0.3122519  )
        18        Al     tau(  18) = ( -0.0000000  0.3333333  0.2594438  )
        19        Al     tau(  19) = ( -0.0000000  0.3333333  0.3181099  )
        20        Al     tau(  20) = (  0.2222222  0.4444445  0.3406750  )
        21        Al     tau(  21) = (  0.1111112  0.5555557  0.2222222  )
        22        O      tau(  22) = (  0.3243222  0.4444445  0.2408330  )
        23        O      tau(  23) = (  0.2222223  0.5465445  0.2408330  )
        24        O      tau(  24) = (  0.1201222  0.3423444  0.2408330  )
        25        O      tau(  25) = (  0.2188039  0.5614317  0.3380604  )
        26        O      tau(  26) = (  0.1052352  0.6573724  0.3380604  )
        27        O      tau(  27) = (  0.0092945  0.4478629  0.3380604  )
        28        O      tau(  28) = (  0.2297834  0.3341738  0.2898322  )
        29        O      tau(  29) = (  0.9991595  0.5622763  0.2898322  )
        30        O      tau(  30) = (  0.1043904  0.4368833  0.2898322  )
        31        Al     tau(  31) = (  0.2222222  0.7777778  0.2701144  )
        32        Al     tau(  32) = (  0.1111112  0.8888890  0.3122519  )
        33        Al     tau(  33) = (  0.0000000  0.6666667  0.2594438  )
        34        Al     tau(  34) = (  0.0000000  0.6666667  0.3181099  )
        35        Al     tau(  35) = (  0.2222222  0.7777778  0.3406750  )
        36        Al     tau(  36) = (  0.1111112  0.8888890  0.2222222  )
        37        O      tau(  37) = (  0.3243222  0.7777778  0.2408330  )
        38        O      tau(  38) = (  0.2222223  0.8798779  0.2408330  )
        39        O      tau(  39) = (  0.1201222  0.6756778  0.2408330  )
        40        O      tau(  40) = (  0.2188039  0.8947650  0.3380604  )
        41        O      tau(  41) = (  0.1052352  0.9907057  0.3380604  )
        42        O      tau(  42) = (  0.0092945  0.7811962  0.3380604  )
        43        O      tau(  43) = (  0.2297834  0.6675072  0.2898322  )
        44        O      tau(  44) = (  0.9991595  0.8956097  0.2898322  )
        45        O      tau(  45) = (  0.1043904  0.7702166  0.2898322  )
        46        Al     tau(  46) = (  0.5555556  0.1111112  0.2701144  )
        47        Al     tau(  47) = (  0.4444445  0.2222223  0.3122519  )
        48        Al     tau(  48) = (  0.3333333  0.0000000  0.2594438  )
        49        Al     tau(  49) = (  0.3333333  0.0000000  0.3181099  )
        50        Al     tau(  50) = (  0.5555556  0.1111112  0.3406750  )
        51        Al     tau(  51) = (  0.4444445  0.2222223  0.2222222  )
        52        O      tau(  52) = (  0.6576556  0.1111112  0.2408330  )
        53        O      tau(  53) = (  0.5555556  0.2132112  0.2408330  )
        54        O      tau(  54) = (  0.4534556  0.0090111  0.2408330  )
        55        O      tau(  55) = (  0.5521372  0.2280983  0.3380604  )
        56        O      tau(  56) = (  0.4385685  0.3240390  0.3380604  )
        57        O      tau(  57) = (  0.3426278  0.1145296  0.3380604  )
        58        O      tau(  58) = (  0.5631167  0.0008405  0.2898322  )
        59        O      tau(  59) = (  0.3324929  0.2289430  0.2898322  )
        60        O      tau(  60) = (  0.4377238  0.1035500  0.2898322  )
        61        Al     tau(  61) = (  0.5555556  0.4444445  0.2701144  )
        62        Al     tau(  62) = (  0.4444445  0.5555557  0.3122519  )
        63        Al     tau(  63) = (  0.3333333  0.3333333  0.2594438  )
        64        Al     tau(  64) = (  0.3333333  0.3333333  0.3181099  )
        65        Al     tau(  65) = (  0.5555556  0.4444445  0.3406750  )
        66        Al     tau(  66) = (  0.4444445  0.5555557  0.2222222  )
        67        O      tau(  67) = (  0.6576556  0.4444445  0.2408330  )
        68        O      tau(  68) = (  0.5555556  0.5465445  0.2408330  )
        69        O      tau(  69) = (  0.4534556  0.3423444  0.2408330  )
        70        O      tau(  70) = (  0.5521372  0.5614317  0.3380604  )
        71        O      tau(  71) = (  0.4385685  0.6573724  0.3380604  )
        72        O      tau(  72) = (  0.3426278  0.4478629  0.3380604  )
        73        O      tau(  73) = (  0.5631167  0.3341738  0.2898322  )
        74        O      tau(  74) = (  0.3324929  0.5622763  0.2898322  )
        75        O      tau(  75) = (  0.4377238  0.4368833  0.2898322  )
        76        Al     tau(  76) = (  0.5555556  0.7777778  0.2701144  )
        77        Al     tau(  77) = (  0.4444445  0.8888890  0.3122519  )
        78        Al     tau(  78) = (  0.3333333  0.6666667  0.2594438  )
        79        Al     tau(  79) = (  0.3333333  0.6666667  0.3181099  )
        80        Al     tau(  80) = (  0.5555556  0.7777778  0.3406750  )
        81        Al     tau(  81) = (  0.4444445  0.8888890  0.2222222  )
        82        O      tau(  82) = (  0.6576556  0.7777778  0.2408330  )
        83        O      tau(  83) = (  0.5555556  0.8798779  0.2408330  )
        84        O      tau(  84) = (  0.4534556  0.6756778  0.2408330  )
        85        O      tau(  85) = (  0.5521372  0.8947650  0.3380604  )
        86        O      tau(  86) = (  0.4385685  0.9907057  0.3380604  )
        87        O      tau(  87) = (  0.3426278  0.7811962  0.3380604  )
        88        O      tau(  88) = (  0.5631167  0.6675072  0.2898322  )
        89        O      tau(  89) = (  0.3324929  0.8956097  0.2898322  )
        90        O      tau(  90) = (  0.4377238  0.7702166  0.2898322  )
        91        Al     tau(  91) = (  0.8888889  0.1111112  0.2701144  )
        92        Al     tau(  92) = (  0.7777778  0.2222223  0.3122519  )
        93        Al     tau(  93) = (  0.6666667  0.0000000  0.2594438  )
        94        Al     tau(  94) = (  0.6666667  0.0000000  0.3181099  )
        95        Al     tau(  95) = (  0.8888889  0.1111112  0.3406750  )
        96        Al     tau(  96) = (  0.7777778  0.2222223  0.2222222  )
        97        O      tau(  97) = (  0.9909889  0.1111112  0.2408330  )
        98        O      tau(  98) = (  0.8888889  0.2132112  0.2408330  )
        99        O      tau(  99) = (  0.7867889  0.0090111  0.2408330  )
       100        O      tau( 100) = (  0.8854705  0.2280983  0.3380604  )
       101        O      tau( 101) = (  0.7719018  0.3240390  0.3380604  )
       102        O      tau( 102) = (  0.6759611  0.1145296  0.3380604  )
       103        O      tau( 103) = (  0.8964501  0.0008405  0.2898322  )
       104        O      tau( 104) = (  0.6658262  0.2289430  0.2898322  )
       105        O      tau( 105) = (  0.7710571  0.1035500  0.2898322  )
       106        Al     tau( 106) = (  0.8888889  0.4444445  0.2701144  )
       107        Al     tau( 107) = (  0.7777778  0.5555557  0.3122519  )
       108        Al     tau( 108) = (  0.6666667  0.3333333  0.2594438  )
       109        Al     tau( 109) = (  0.6666667  0.3333333  0.3181099  )
       110        Al     tau( 110) = (  0.8888889  0.4444445  0.3406750  )
       111        Al     tau( 111) = (  0.7777778  0.5555557  0.2222222  )
       112        O      tau( 112) = (  0.9909889  0.4444445  0.2408330  )
       113        O      tau( 113) = (  0.8888889  0.5465445  0.2408330  )
       114        O      tau( 114) = (  0.7867889  0.3423444  0.2408330  )
       115        O      tau( 115) = (  0.8854705  0.5614317  0.3380604  )
       116        O      tau( 116) = (  0.7719018  0.6573724  0.3380604  )
       117        O      tau( 117) = (  0.6759611  0.4478629  0.3380604  )
       118        O      tau( 118) = (  0.8964501  0.3341738  0.2898322  )
       119        O      tau( 119) = (  0.6658262  0.5622763  0.2898322  )
       120        O      tau( 120) = (  0.7710571  0.4368833  0.2898322  )
       121        Al     tau( 121) = (  0.8888889  0.7777778  0.2701144  )
       122        Al     tau( 122) = (  0.7777778  0.8888890  0.3122519  )
       123        Al     tau( 123) = (  0.6666667  0.6666667  0.2594438  )
       124        Al     tau( 124) = (  0.6666667  0.6666667  0.3181099  )
       125        Al     tau( 125) = (  0.8888889  0.7777778  0.3406750  )
       126        Al     tau( 126) = (  0.7777778  0.8888890  0.2222222  )
       127        O      tau( 127) = (  0.9909889  0.7777778  0.2408330  )
       128        O      tau( 128) = (  0.8888889  0.8798779  0.2408330  )
       129        O      tau( 129) = (  0.7867889  0.6756778  0.2408330  )
       130        O      tau( 130) = (  0.8854705  0.8947650  0.3380604  )
       131        O      tau( 131) = (  0.7719018  0.9907057  0.3380604  )
       132        O      tau( 132) = (  0.6759611  0.7811962  0.3380604  )
       133        O      tau( 133) = (  0.8964501  0.6675072  0.2898322  )
       134        O      tau( 134) = (  0.6658262  0.8956097  0.2898322  )
       135        O      tau( 135) = (  0.7710571  0.7702166  0.2898322  )
       136        Nb     tau( 136) = (  0.2222381  0.1111125  0.4419207  )
       137        Se     tau( 137) = (  0.3049623  0.2775024  0.4786620  )
       138        Se     tau( 138) = (  0.3057608  0.2772536  0.4053047  )
       139        Nb     tau( 139) = (  0.2214219  0.3595884  0.4414604  )
       140        Se     tau( 140) = (  0.3070245  0.5286707  0.4771545  )
       141        Se     tau( 141) = (  0.3023670  0.5248605  0.4042162  )
       142        Nb     tau( 142) = (  0.2208346  0.6103876  0.4408784  )
       143        Se     tau( 143) = (  0.3068557  0.7777497  0.4775040  )
       144        Se     tau( 144) = (  0.3012300  0.7774545  0.4046683  )
       145        Nb     tau( 145) = (  0.2213716  0.8618613  0.4419776  )
       146        Se     tau( 146) = (  0.3058358  0.0282005  0.4786741  )
       147        Se     tau( 147) = (  0.3047780  0.0275608  0.4053337  )
       148        Nb     tau( 148) = (  0.4714820  0.1119527  0.4414890  )
       149        Se     tau( 149) = (  0.5558448  0.2775738  0.4785800  )
       150        Se     tau( 150) = (  0.5556769  0.2787143  0.4052869  )
       151        Nb     tau( 151) = (  0.4713623  0.3594659  0.4419591  )
       152        Se     tau( 152) = (  0.5554922  0.5290740  0.4774816  )
       153        Se     tau( 153) = (  0.5558840  0.5237587  0.4046466  )
       154        Nb     tau( 154) = (  0.4714120  0.6091039  0.4399066  )
       155        Se     tau( 155) = (  0.5554823  0.7776591  0.4758496  )
       156        Se     tau( 156) = (  0.5555456  0.7777595  0.4036968  )
       157        Nb     tau( 157) = (  0.4710206  0.8618492  0.4399337  )
       158        Se     tau( 158) = (  0.5549894  0.0262412  0.4771766  )
       159        Se     tau( 159) = (  0.5558579  0.0311105  0.4042696  )
       160        Nb     tau( 160) = (  0.7229243  0.1125228  0.4409088  )
       161        Se     tau( 161) = (  0.8056139  0.2771742  0.4781517  )
       162        Se     tau( 162) = (  0.8067320  0.2789621  0.4048786  )
       163        Nb     tau( 163) = (  0.7221353  0.3608997  0.4414503  )
       164        Se     tau( 164) = (  0.8048064  0.5276986  0.4781559  )
       165        Se     tau( 165) = (  0.8055763  0.5267328  0.4048617  )
       166        Nb     tau( 166) = (  0.7228726  0.6103832  0.4408741  )
       167        Se     tau( 167) = (  0.8045386  0.7781593  0.4771811  )
       168        Se     tau( 168) = (  0.8085048  0.7774898  0.4042513  )
       169        Nb     tau( 169) = (  0.7241700  0.8622591  0.4399351  )
       170        Se     tau( 170) = (  0.8042308  0.0263580  0.4775091  )
       171        Se     tau( 171) = (  0.8096384  0.0322939  0.4046881  )
       172        Nb     tau( 172) = (  0.9738831  0.1119184  0.4419836  )
       173        Se     tau( 173) = (  0.0557260  0.2782691  0.4785766  )
       174        Se     tau( 174) = (  0.0546965  0.2770119  0.4052927  )
       175        Nb     tau( 175) = (  0.9725243  0.3613293  0.4414497  )
       176        Se     tau( 176) = (  0.0561692  0.5283499  0.4781632  )
       177        Se     tau( 177) = (  0.0544748  0.5278431  0.4048591  )
       178        Nb     tau( 178) = (  0.9720532  0.6111703  0.4414687  )
       179        Se     tau( 179) = (  0.0550372  0.7773497  0.4785994  )
       180        Se     tau( 180) = (  0.0563372  0.7777348  0.4052988  )
       181        Nb     tau( 181) = (  0.9737269  0.8617707  0.4414933  )
       182        Se     tau( 182) = (  0.0557051  0.0273544  0.4786732  )
       183        Se     tau( 183) = (  0.0561836  0.0286001  0.4053335  )

     number of k points=     4  Marzari-Vanderbilt smearing, width (Ry)=  0.0200
                       cart. coord. in units 2pi/alat
        k(    1) = (   0.0000000   0.0000000   0.0000000), wk =   0.2500000
        k(    2) = (   0.0000000  -0.5773505   0.0000000), wk =   0.2500000
        k(    3) = (  -0.5000000  -0.2886753   0.0000000), wk =   0.2500000
        k(    4) = (  -0.5000000  -0.8660258   0.0000000), wk =   0.2500000

                       cryst. coord.
        k(    1) = (   0.0000000   0.0000000   0.0000000), wk =   0.2500000
        k(    2) = (   0.0000000  -0.5000000   0.0000000), wk =   0.2500000
        k(    3) = (  -0.5000000   0.0000000   0.0000000), wk =   0.2500000
        k(    4) = (  -0.5000000  -0.5000000   0.0000000), wk =   0.2500000

     Dense  grid:  7241989 G-vectors     FFT dimensions: ( 180, 180, 576)

     Smooth grid:  2560523 G-vectors     FFT dimensions: ( 125, 125, 384)

     Dynamical RAM for                 wfc:      33.06 MB

     Dynamical RAM for     wfc (w. buffer):      99.17 MB

     Dynamical RAM for           str. fact:       4.60 MB

     Dynamical RAM for           local pot:       0.00 MB

     Dynamical RAM for          nlocal pot:     126.33 MB

     Dynamical RAM for                qrad:       6.42 MB

     Dynamical RAM for          rho,v,vnew:      15.81 MB

     Dynamical RAM for               rhoin:       5.27 MB

     Dynamical RAM for            rho*nmix:     110.50 MB

     Dynamical RAM for           G-vectors:       4.52 MB

     Dynamical RAM for          h,s,v(r/c):       1.57 MB

     Dynamical RAM for          <psi|beta>:      24.64 MB

     Dynamical RAM for                 psi:      66.11 MB

     Dynamical RAM for                hpsi:      66.11 MB

     Dynamical RAM for                spsi:      66.11 MB

     Dynamical RAM for      wfcinit/wfcrot:      75.79 MB

     Dynamical RAM for           addusdens:      78.84 MB

     Dynamical RAM for          addusforce:     124.65 MB

     Dynamical RAM for         addusstress:      59.13 MB

     Estimated static dynamical RAM per process >     276.78 MB

     Estimated max dynamical RAM per process >     611.82 MB

     Estimated total dynamical RAM >     198.36 GB
 ----2D----2D----2D----2D----2D----2D----2D----2D----2D----2D----2D----2D
  The code is running with the 2D cutoff
  Please refer to:
  Sohier, T., Calandra, M., & Mauri, F. (2017), 
  Density functional perturbation theory for gated two-dimensional heterostructures:
  Theoretical developments and application to flexural phonons in graphene.
  Physical Review B, 96(7), 75448. https://doi.org/10.1103/PhysRevB.96.075448
 ----2D----2D----2D----2D----2D----2D----2D----2D----2D----2D----2D----2D
     Generating pointlists ...
     new r_m :   0.0491 (alat units)  1.3246 (a.u.) for type    1
     new r_m :   0.0491 (alat units)  1.3246 (a.u.) for type    2
     new r_m :   0.0757 (alat units)  2.0412 (a.u.) for type    3
     new r_m :   0.0757 (alat units)  2.0412 (a.u.) for type    4

     The initial density is read from file :
     ./REDACTED_PATH


     negative rho (up, down):  5.311E-03 5.311E-03
     Starting wfcs from file
     Checking if some PAW data can be deallocated... 
       PAW data deallocated on  267 nodes for type:  1
       PAW data deallocated on  213 nodes for type:  2
       PAW data deallocated on  352 nodes for type:  3

     total cpu time spent up to now is       14.6 secs

     per-process dynamical memory:   451.4 Mb

     Self-consistent Calculation

     iteration #  1     ecut=    50.00 Ry     beta= 0.00
     Davidson diagonalization with overlap

---- Real-time Memory Report at c_bands before calling an iterative solver
           545 MiB given to the printing process from OS
           440 MiB allocation reported by mallinfo(arena+hblkhd)
        301601 MiB available memory on the node where the printing process lives
------------------
     ethr =  1.00E-05,  avg # of iterations =  2.2

     Threshold (ethr) on eigenvalues was too large:
     Diagonalizing with lowered threshold

     Davidson diagonalization with overlap

---- Real-time Memory Report at c_bands before calling an iterative solver
           945 MiB given to the printing process from OS
           488 MiB allocation reported by mallinfo(arena+hblkhd)
        265911 MiB available memory on the node where the printing process lives
------------------
     ethr =  3.69E-09,  avg # of iterations =  1.0

     negative rho (up, down):  5.311E-03 5.311E-03

     total cpu time spent up to now is       91.0 secs

     total energy              =  -12271.35473079 Ry
     estimated scf accuracy    <       0.00003987 Ry

     total magnetization       =     0.00 Bohr mag/cell
     absolute magnetization    =     0.00 Bohr mag/cell

     iteration #  2     ecut=    50.00 Ry     beta= 0.00
     Davidson diagonalization with overlap

---- Real-time Memory Report at c_bands before calling an iterative solver
           952 MiB given to the printing process from OS
           518 MiB allocation reported by mallinfo(arena+hblkhd)
        263630 MiB available memory on the node where the printing process lives
------------------
     ethr =  3.80E-09,  avg # of iterations =  1.0

     negative rho (up, down):  5.309E-03 5.309E-03

     total cpu time spent up to now is      127.2 secs

     total energy              =  -12271.35473021 Ry
     estimated scf accuracy    <       0.00003953 Ry

     total magnetization       =     0.00 Bohr mag/cell
     absolute magnetization    =     0.00 Bohr mag/cell

     iteration #  3     ecut=    50.00 Ry     beta= 0.00
     Davidson diagonalization with overlap

---- Real-time Memory Report at c_bands before calling an iterative solver
           988 MiB given to the printing process from OS
           521 MiB allocation reported by mallinfo(arena+hblkhd)
        263130 MiB available memory on the node where the printing process lives
------------------
     ethr =  3.77E-09,  avg # of iterations =  1.0

     negative rho (up, down):  5.300E-03 5.300E-03

     total cpu time spent up to now is      163.1 secs

     total energy              =  -12271.35472819 Ry
     estimated scf accuracy    <       0.00002692 Ry

     total magnetization       =     0.00 Bohr mag/cell
     absolute magnetization    =     0.00 Bohr mag/cell

     iteration #  4     ecut=    50.00 Ry     beta= 0.00
     Davidson diagonalization with overlap

---- Real-time Memory Report at c_bands before calling an iterative solver
           997 MiB given to the printing process from OS
           523 MiB allocation reported by mallinfo(arena+hblkhd)
        262585 MiB available memory on the node where the printing process lives
------------------
     ethr =  2.57E-09,  avg # of iterations =  1.0

     negative rho (up, down):  5.300E-03 5.300E-03

     total cpu time spent up to now is      200.4 secs

     total energy              =  -12271.35472912 Ry
     estimated scf accuracy    <       0.00000159 Ry

     total magnetization       =     0.00 Bohr mag/cell
     absolute magnetization    =     0.00 Bohr mag/cell

     iteration #  5     ecut=    50.00 Ry     beta= 0.00
     Davidson diagonalization with overlap

---- Real-time Memory Report at c_bands before calling an iterative solver
          1001 MiB given to the printing process from OS
           526 MiB allocation reported by mallinfo(arena+hblkhd)
        262672 MiB available memory on the node where the printing process lives
------------------
     ethr =  1.52E-10,  avg # of iterations =  1.0

     negative rho (up, down):  5.293E-03 5.293E-03

     total cpu time spent up to now is      236.8 secs

     total energy              =  -12271.35472889 Ry
     estimated scf accuracy    <       0.00000160 Ry

     total magnetization       =     0.00 Bohr mag/cell
     absolute magnetization    =     0.00 Bohr mag/cell

     iteration #  6     ecut=    50.00 Ry     beta= 0.00
     Davidson diagonalization with overlap

---- Real-time Memory Report at c_bands before calling an iterative solver
          1008 MiB given to the printing process from OS
           528 MiB allocation reported by mallinfo(arena+hblkhd)
        262234 MiB available memory on the node where the printing process lives
------------------
     ethr =  1.52E-10,  avg # of iterations =  1.0

     negative rho (up, down):  5.286E-03 5.286E-03

     total cpu time spent up to now is      273.3 secs

     total energy              =  -12271.35472877 Ry
     estimated scf accuracy    <       0.00000088 Ry

     total magnetization       =     0.00 Bohr mag/cell
     absolute magnetization    =     0.00 Bohr mag/cell

     iteration #  7     ecut=    50.00 Ry     beta= 0.00
     Davidson diagonalization with overlap

---- Real-time Memory Report at c_bands before calling an iterative solver
          1012 MiB given to the printing process from OS
           531 MiB allocation reported by mallinfo(arena+hblkhd)
        262189 MiB available memory on the node where the printing process lives
------------------
     ethr =  8.36E-11,  avg # of iterations =  1.2

     negative rho (up, down):  5.283E-03 5.283E-03

     total cpu time spent up to now is      311.8 secs

     total energy              =  -12271.35472876 Ry
     estimated scf accuracy    <       0.00000062 Ry

     total magnetization       =     0.00 Bohr mag/cell
     absolute magnetization    =     0.00 Bohr mag/cell

     iteration #  8     ecut=    50.00 Ry     beta= 0.00
     Davidson diagonalization with overlap

---- Real-time Memory Report at c_bands before calling an iterative solver
          1015 MiB given to the printing process from OS
           534 MiB allocation reported by mallinfo(arena+hblkhd)
        261762 MiB available memory on the node where the printing process lives
------------------
     ethr =  5.88E-11,  avg # of iterations =  1.0

     negative rho (up, down):  5.262E-03 5.262E-03

     total cpu time spent up to now is      349.4 secs

     total energy              =  -12271.35472845 Ry
     estimated scf accuracy    <       0.00000060 Ry

     total magnetization       =     0.00 Bohr mag/cell
     absolute magnetization    =     0.00 Bohr mag/cell

     iteration #  9     ecut=    50.00 Ry     beta= 0.00
     Davidson diagonalization with overlap

---- Real-time Memory Report at c_bands before calling an iterative solver
          1019 MiB given to the printing process from OS
           536 MiB allocation reported by mallinfo(arena+hblkhd)
        261700 MiB available memory on the node where the printing process lives
------------------
     ethr =  5.75E-11,  avg # of iterations =  2.0

     negative rho (up, down):  5.262E-03 5.262E-03

     total cpu time spent up to now is      390.0 secs

     total energy              =  -12271.35472850 Ry
     estimated scf accuracy    <       0.00000020 Ry

     total magnetization       =     0.00 Bohr mag/cell
     absolute magnetization    =     0.00 Bohr mag/cell

     iteration # 10     ecut=    50.00 Ry     beta= 0.00
     Davidson diagonalization with overlap

---- Real-time Memory Report at c_bands before calling an iterative solver
          1022 MiB given to the printing process from OS
           539 MiB allocation reported by mallinfo(arena+hblkhd)
        261280 MiB available memory on the node where the printing process lives
------------------
     ethr =  1.94E-11,  avg # of iterations =  1.0

     negative rho (up, down):  5.263E-03 5.263E-03

     total cpu time spent up to now is      426.6 secs

     total energy              =  -12271.35472850 Ry
     estimated scf accuracy    <       0.00000016 Ry

     total magnetization       =     0.00 Bohr mag/cell
     absolute magnetization    =     0.00 Bohr mag/cell

     iteration # 11     ecut=    50.00 Ry     beta= 0.00
     Davidson diagonalization with overlap

---- Real-time Memory Report at c_bands before calling an iterative solver
          1024 MiB given to the printing process from OS
           541 MiB allocation reported by mallinfo(arena+hblkhd)
        261055 MiB available memory on the node where the printing process lives
------------------
     ethr =  1.54E-11,  avg # of iterations =  1.0

     negative rho (up, down):  5.262E-03 5.262E-03

     total cpu time spent up to now is      462.6 secs

     total energy              =  -12271.35472849 Ry
     estimated scf accuracy    <       0.00000015 Ry

     total magnetization       =     0.00 Bohr mag/cell
     absolute magnetization    =     0.00 Bohr mag/cell

     iteration # 12     ecut=    50.00 Ry     beta= 0.00
     Davidson diagonalization with overlap

---- Real-time Memory Report at c_bands before calling an iterative solver
          1030 MiB given to the printing process from OS
           544 MiB allocation reported by mallinfo(arena+hblkhd)
        260774 MiB available memory on the node where the printing process lives
------------------
     ethr =  1.47E-11,  avg # of iterations =  1.0

     negative rho (up, down):  5.255E-03 5.255E-03

     total cpu time spent up to now is      503.2 secs

     total energy              =  -12271.35472843 Ry
     estimated scf accuracy    <       0.00000014 Ry

     total magnetization       =     0.00 Bohr mag/cell
     absolute magnetization    =     0.00 Bohr mag/cell

     iteration # 13     ecut=    50.00 Ry     beta= 0.00
     Davidson diagonalization with overlap

---- Real-time Memory Report at c_bands before calling an iterative solver
          1032 MiB given to the printing process from OS
           546 MiB allocation reported by mallinfo(arena+hblkhd)
        260677 MiB available memory on the node where the printing process lives
------------------
     ethr =  1.33E-11,  avg # of iterations =  1.0

     negative rho (up, down):  5.252E-03 5.252E-03

     total cpu time spent up to now is      544.9 secs

     total energy              =  -12271.35472840 Ry
     estimated scf accuracy    <       0.00000013 Ry

     total magnetization       =     0.00 Bohr mag/cell
     absolute magnetization    =     0.00 Bohr mag/cell

     iteration # 14     ecut=    50.00 Ry     beta= 0.00
     Davidson diagonalization with overlap

---- Real-time Memory Report at c_bands before calling an iterative solver
          1035 MiB given to the printing process from OS
           549 MiB allocation reported by mallinfo(arena+hblkhd)
        260332 MiB available memory on the node where the printing process lives
------------------
     ethr =  1.28E-11,  avg # of iterations =  1.0

     negative rho (up, down):  5.246E-03 5.246E-03

     total cpu time spent up to now is      581.8 secs

     total energy              =  -12271.35472835 Ry
     estimated scf accuracy    <       0.00000014 Ry

     total magnetization       =     0.00 Bohr mag/cell
     absolute magnetization    =     0.00 Bohr mag/cell

     iteration # 15     ecut=    50.00 Ry     beta= 0.00
     Davidson diagonalization with overlap

---- Real-time Memory Report at c_bands before calling an iterative solver
          1039 MiB given to the printing process from OS
           552 MiB allocation reported by mallinfo(arena+hblkhd)
        260070 MiB available memory on the node where the printing process lives
------------------
     ethr =  1.28E-11,  avg # of iterations =  1.0

     negative rho (up, down):  5.246E-03 5.246E-03

     total cpu time spent up to now is      619.7 secs

     total energy              =  -12271.35472835 Ry
     estimated scf accuracy    <       0.00000007 Ry

     total magnetization       =     0.00 Bohr mag/cell
     absolute magnetization    =     0.00 Bohr mag/cell

     iteration # 16     ecut=    50.00 Ry     beta= 0.00
     Davidson diagonalization with overlap

---- Real-time Memory Report at c_bands before calling an iterative solver
          1042 MiB given to the printing process from OS
           554 MiB allocation reported by mallinfo(arena+hblkhd)
        259871 MiB available memory on the node where the printing process lives
------------------
     ethr =  6.62E-12,  avg # of iterations =  1.0

     negative rho (up, down):  5.246E-03 5.246E-03

     total cpu time spent up to now is      655.8 secs

     total energy              =  -12271.35472836 Ry
     estimated scf accuracy    <       0.00000007 Ry

     total magnetization       =     0.00 Bohr mag/cell
     absolute magnetization    =     0.00 Bohr mag/cell

     iteration # 17     ecut=    50.00 Ry     beta= 0.00
     Davidson diagonalization with overlap

---- Real-time Memory Report at c_bands before calling an iterative solver
          1044 MiB given to the printing process from OS
           557 MiB allocation reported by mallinfo(arena+hblkhd)
        259600 MiB available memory on the node where the printing process lives
------------------
     ethr =  6.62E-12,  avg # of iterations =  1.0

     negative rho (up, down):  5.246E-03 5.246E-03

     total cpu time spent up to now is      692.3 secs

     total energy              =  -12271.35472835 Ry
     estimated scf accuracy    <       0.00000007 Ry

     total magnetization       =     0.00 Bohr mag/cell
     absolute magnetization    =     0.00 Bohr mag/cell

     iteration # 18     ecut=    50.00 Ry     beta= 0.00
     Davidson diagonalization with overlap

---- Real-time Memory Report at c_bands before calling an iterative solver
          1047 MiB given to the printing process from OS
           559 MiB allocation reported by mallinfo(arena+hblkhd)
        259485 MiB available memory on the node where the printing process lives
------------------
     ethr =  6.62E-12,  avg # of iterations =  1.0

     negative rho (up, down):  5.245E-03 5.245E-03

     total cpu time spent up to now is      729.0 secs

     total energy              =  -12271.35472835 Ry
     estimated scf accuracy    <       0.00000007 Ry

     total magnetization       =     0.00 Bohr mag/cell
     absolute magnetization    =     0.00 Bohr mag/cell

     iteration # 19     ecut=    50.00 Ry     beta= 0.00
     Davidson diagonalization with overlap

---- Real-time Memory Report at c_bands before calling an iterative solver
          1049 MiB given to the printing process from OS
           562 MiB allocation reported by mallinfo(arena+hblkhd)
        259033 MiB available memory on the node where the printing process lives
------------------
     ethr =  6.62E-12,  avg # of iterations =  1.0

     negative rho (up, down):  5.242E-03 5.242E-03

     total cpu time spent up to now is      764.8 secs

     total energy              =  -12271.35472833 Ry
     estimated scf accuracy    <       0.00000007 Ry

     total magnetization       =     0.00 Bohr mag/cell
     absolute magnetization    =     0.00 Bohr mag/cell

     iteration # 20     ecut=    50.00 Ry     beta= 0.00
     Davidson diagonalization with overlap

---- Real-time Memory Report at c_bands before calling an iterative solver
          1052 MiB given to the printing process from OS
           565 MiB allocation reported by mallinfo(arena+hblkhd)
        258849 MiB available memory on the node where the printing process lives
------------------
     ethr =  6.27E-12,  avg # of iterations =  1.0

     negative rho (up, down):  5.242E-03 5.242E-03

     total cpu time spent up to now is      802.1 secs

     total energy              =  -12271.35472833 Ry
     estimated scf accuracy    <       0.00000005 Ry

     total magnetization       =     0.00 Bohr mag/cell
     absolute magnetization    =     0.00 Bohr mag/cell

     iteration # 21     ecut=    50.00 Ry     beta= 0.00
     Davidson diagonalization with overlap

---- Real-time Memory Report at c_bands before calling an iterative solver
          1054 MiB given to the printing process from OS
           567 MiB allocation reported by mallinfo(arena+hblkhd)
        258638 MiB available memory on the node where the printing process lives
------------------
     ethr =  5.14E-12,  avg # of iterations =  1.0

     negative rho (up, down):  5.242E-03 5.242E-03

     total cpu time spent up to now is      842.3 secs

     total energy              =  -12271.35472834 Ry
     estimated scf accuracy    <       0.00000005 Ry

     total magnetization       =     0.00 Bohr mag/cell
     absolute magnetization    =     0.00 Bohr mag/cell

     iteration # 22     ecut=    50.00 Ry     beta= 0.00
     Davidson diagonalization with overlap

---- Real-time Memory Report at c_bands before calling an iterative solver
          1059 MiB given to the printing process from OS
           570 MiB allocation reported by mallinfo(arena+hblkhd)
        258247 MiB available memory on the node where the printing process lives
------------------
     ethr =  5.13E-12,  avg # of iterations =  1.0

     negative rho (up, down):  5.247E-03 5.247E-03

     total cpu time spent up to now is      882.3 secs

     total energy              =  -12271.35472840 Ry
     estimated scf accuracy    <       0.00000005 Ry

     total magnetization       =     0.00 Bohr mag/cell
     absolute magnetization    =     0.00 Bohr mag/cell

     iteration # 23     ecut=    50.00 Ry     beta= 0.00
     Davidson diagonalization with overlap

---- Real-time Memory Report at c_bands before calling an iterative solver
          1061 MiB given to the printing process from OS
           572 MiB allocation reported by mallinfo(arena+hblkhd)
        258092 MiB available memory on the node where the printing process lives
------------------
     ethr =  4.46E-12,  avg # of iterations =  1.2

     negative rho (up, down):  5.247E-03 5.247E-03

     total cpu time spent up to now is      921.7 secs

     total energy              =  -12271.35472841 Ry
     estimated scf accuracy    <       0.00000003 Ry

     total magnetization       =     0.00 Bohr mag/cell
     absolute magnetization    =     0.00 Bohr mag/cell

     iteration # 24     ecut=    50.00 Ry     beta= 0.00
     Davidson diagonalization with overlap

---- Real-time Memory Report at c_bands before calling an iterative solver
          1064 MiB given to the printing process from OS
           575 MiB allocation reported by mallinfo(arena+hblkhd)
        257768 MiB available memory on the node where the printing process lives
------------------
     ethr =  3.34E-12,  avg # of iterations =  1.0

     negative rho (up, down):  5.252E-03 5.252E-03

     total cpu time spent up to now is      958.2 secs

     total energy              =  -12271.35472845 Ry
     estimated scf accuracy    <       0.00000004 Ry

     total magnetization       =     0.00 Bohr mag/cell
     absolute magnetization    =     0.00 Bohr mag/cell

     iteration # 25     ecut=    50.00 Ry     beta= 0.00
     Davidson diagonalization with overlap

---- Real-time Memory Report at c_bands before calling an iterative solver
          1066 MiB given to the printing process from OS
           577 MiB allocation reported by mallinfo(arena+hblkhd)
        257580 MiB available memory on the node where the printing process lives
------------------
     ethr =  3.34E-12,  avg # of iterations =  1.0

     negative rho (up, down):  5.260E-03 5.260E-03

     total cpu time spent up to now is      994.5 secs

     total energy              =  -12271.35472853 Ry
     estimated scf accuracy    <       0.00000003 Ry

     total magnetization       =     0.00 Bohr mag/cell
     absolute magnetization    =     0.00 Bohr mag/cell

     iteration # 26     ecut=    50.00 Ry     beta= 0.00
     Davidson diagonalization with overlap

---- Real-time Memory Report at c_bands before calling an iterative solver
          1070 MiB given to the printing process from OS
           580 MiB allocation reported by mallinfo(arena+hblkhd)
        257463 MiB available memory on the node where the printing process lives
------------------
     ethr =  2.92E-12,  avg # of iterations =  2.0

     negative rho (up, down):  5.259E-03 5.259E-03

     total cpu time spent up to now is     1037.3 secs

     total energy              =  -12271.35472853 Ry
     estimated scf accuracy    <       0.00000004 Ry

     total magnetization       =     0.00 Bohr mag/cell
     absolute magnetization    =     0.00 Bohr mag/cell

     iteration # 27     ecut=    50.00 Ry     beta= 0.00
     Davidson diagonalization with overlap

---- Real-time Memory Report at c_bands before calling an iterative solver
          1073 MiB given to the printing process from OS
           580 MiB allocation reported by mallinfo(arena+hblkhd)
        257487 MiB available memory on the node where the printing process lives
------------------
     ethr =  2.92E-12,  avg # of iterations =  1.0

     negative rho (up, down):  5.262E-03 5.262E-03

     total cpu time spent up to now is     1073.6 secs

     total energy              =  -12271.35472854 Ry
     estimated scf accuracy    <       0.00000003 Ry

     total magnetization       =     0.00 Bohr mag/cell
     absolute magnetization    =     0.00 Bohr mag/cell

     iteration # 28     ecut=    50.00 Ry     beta= 0.00
     Davidson diagonalization with overlap

---- Real-time Memory Report at c_bands before calling an iterative solver
          1073 MiB given to the printing process from OS
           580 MiB allocation reported by mallinfo(arena+hblkhd)
        257323 MiB available memory on the node where the printing process lives
------------------
     ethr =  2.92E-12,  avg # of iterations =  1.0

     negative rho (up, down):  5.274E-03 5.274E-03

     total cpu time spent up to now is     1109.8 secs

     total energy              =  -12271.35472864 Ry
     estimated scf accuracy    <       0.00000002 Ry

     total magnetization       =     0.00 Bohr mag/cell
     absolute magnetization    =     0.00 Bohr mag/cell

     iteration # 29     ecut=    50.00 Ry     beta= 0.00
     Davidson diagonalization with overlap

---- Real-time Memory Report at c_bands before calling an iterative solver
          1073 MiB given to the printing process from OS
           580 MiB allocation reported by mallinfo(arena+hblkhd)
        257130 MiB available memory on the node where the printing process lives
------------------
     ethr =  2.19E-12,  avg # of iterations =  2.0

     negative rho (up, down):  5.274E-03 5.274E-03

     total cpu time spent up to now is     1152.3 secs

     total energy              =  -12271.35472865 Ry
     estimated scf accuracy    <       0.00000001 Ry

     total magnetization       =     0.00 Bohr mag/cell
     absolute magnetization    =     0.00 Bohr mag/cell

     iteration # 30     ecut=    50.00 Ry     beta= 0.00
     Davidson diagonalization with overlap

---- Real-time Memory Report at c_bands before calling an iterative solver
          1073 MiB given to the printing process from OS
           580 MiB allocation reported by mallinfo(arena+hblkhd)
        257366 MiB available memory on the node where the printing process lives
------------------
     ethr =  1.08E-12,  avg # of iterations =  1.0

     negative rho (up, down):  5.273E-03 5.273E-03

     total cpu time spent up to now is     1189.4 secs

     total energy              =  -12271.35472864 Ry
     estimated scf accuracy    <       0.00000001 Ry

     total magnetization       =     0.00 Bohr mag/cell
     absolute magnetization    =     0.00 Bohr mag/cell

     iteration # 31     ecut=    50.00 Ry     beta= 0.00
     Davidson diagonalization with overlap

---- Real-time Memory Report at c_bands before calling an iterative solver
          1073 MiB given to the printing process from OS
           580 MiB allocation reported by mallinfo(arena+hblkhd)
        257174 MiB available memory on the node where the printing process lives
------------------
     ethr =  1.05E-12,  avg # of iterations =  1.0

     negative rho (up, down):  5.278E-03 5.278E-03

     total cpu time spent up to now is     1226.4 secs

     total energy              =  -12271.35472867 Ry
     estimated scf accuracy    <       0.00000001 Ry

     total magnetization       =     0.00 Bohr mag/cell
     absolute magnetization    =     0.00 Bohr mag/cell

     iteration # 32     ecut=    50.00 Ry     beta= 0.00
     Davidson diagonalization with overlap

---- Real-time Memory Report at c_bands before calling an iterative solver
          1073 MiB given to the printing process from OS
           580 MiB allocation reported by mallinfo(arena+hblkhd)
        257262 MiB available memory on the node where the printing process lives
------------------
     ethr =  1.01E-12,  avg # of iterations =  2.0

     negative rho (up, down):  5.312E-03 5.312E-03

     Magnetic moment per site  (integrated on atomic sphere of radius R)
     atom   1 (R=0.049)  charge=  0.2700  magn= -0.0000
     atom   2 (R=0.049)  charge=  0.2681  magn=  0.0000
     atom   3 (R=0.049)  charge=  0.2713  magn= -0.0000
     atom   4 (R=0.049)  charge=  0.2983  magn=  0.0000
     atom   5 (R=0.049)  charge=  0.3224  magn=  0.0000
     atom   6 (R=0.049)  charge=  0.2521  magn= -0.0000
     atom   7 (R=0.049)  charge=  4.7503  magn= -0.0000
     atom   8 (R=0.049)  charge=  4.7503  magn= -0.0000
     atom   9 (R=0.049)  charge=  4.7503  magn= -0.0000
     atom  10 (R=0.049)  charge=  4.8434  magn=  0.0000
     atom  11 (R=0.049)  charge=  4.8442  magn=  0.0000
     atom  12 (R=0.049)  charge=  4.8435  magn= -0.0000
     atom  13 (R=0.049)  charge=  4.8098  magn= -0.0000
     atom  14 (R=0.049)  charge=  4.8098  magn= -0.0000
     atom  15 (R=0.049)  charge=  4.8098  magn=  0.0000
     atom  16 (R=0.049)  charge=  0.2700  magn=  0.0000
     atom  17 (R=0.049)  charge=  0.2681  magn=  0.0000
     atom  18 (R=0.049)  charge=  0.2713  magn= -0.0000
     atom  19 (R=0.049)  charge=  0.2983  magn=  0.0000
     atom  20 (R=0.049)  charge=  0.3228  magn=  0.0000
     atom  21 (R=0.049)  charge=  0.2521  magn= -0.0000
     atom  22 (R=0.049)  charge=  4.7502  magn=  0.0000
     atom  23 (R=0.049)  charge=  4.7500  magn= -0.0000
     atom  24 (R=0.049)  charge=  4.7503  magn=  0.0000
     atom  25 (R=0.049)  charge=  4.8441  magn=  0.0000
     atom  26 (R=0.049)  charge=  4.8431  magn=  0.0000
     atom  27 (R=0.049)  charge=  4.8437  magn=  0.0000
     atom  28 (R=0.049)  charge=  4.8099  magn= -0.0000
     atom  29 (R=0.049)  charge=  4.8097  magn=  0.0000
     atom  30 (R=0.049)  charge=  4.8097  magn=  0.0000
     atom  31 (R=0.049)  charge=  0.2700  magn=  0.0000
     atom  32 (R=0.049)  charge=  0.2681  magn=  0.0000
     atom  33 (R=0.049)  charge=  0.2713  magn= -0.0000
     atom  34 (R=0.049)  charge=  0.2983  magn=  0.0000
     atom  35 (R=0.049)  charge=  0.3227  magn=  0.0000
     atom  36 (R=0.049)  charge=  0.2521  magn= -0.0000
     atom  37 (R=0.049)  charge=  4.7500  magn=  0.0000
     atom  38 (R=0.049)  charge=  4.7502  magn= -0.0000
     atom  39 (R=0.049)  charge=  4.7503  magn= -0.0000
     atom  40 (R=0.049)  charge=  4.8435  magn= -0.0000
     atom  41 (R=0.049)  charge=  4.8434  magn=  0.0000
     atom  42 (R=0.049)  charge=  4.8442  magn=  0.0000
     atom  43 (R=0.049)  charge=  4.8100  magn= -0.0000
     atom  44 (R=0.049)  charge=  4.8099  magn= -0.0000
     atom  45 (R=0.049)  charge=  4.8098  magn= -0.0000
     atom  46 (R=0.049)  charge=  0.2700  magn=  0.0000
     atom  47 (R=0.049)  charge=  0.2681  magn=  0.0000
     atom  48 (R=0.049)  charge=  0.2713  magn= -0.0000
     atom  49 (R=0.049)  charge=  0.2983  magn=  0.0000
     atom  50 (R=0.049)  charge=  0.3227  magn=  0.0000
     atom  51 (R=0.049)  charge=  0.2521  magn= -0.0000
     atom  52 (R=0.049)  charge=  4.7500  magn= -0.0000
     atom  53 (R=0.049)  charge=  4.7503  magn=  0.0000
     atom  54 (R=0.049)  charge=  4.7502  magn=  0.0000
     atom  55 (R=0.049)  charge=  4.8442  magn=  0.0000
     atom  56 (R=0.049)  charge=  4.8435  magn= -0.0000
     atom  57 (R=0.049)  charge=  4.8434  magn=  0.0000
     atom  58 (R=0.049)  charge=  4.8100  magn=  0.0000
     atom  59 (R=0.049)  charge=  4.8098  magn= -0.0000
     atom  60 (R=0.049)  charge=  4.8099  magn= -0.0000
     atom  61 (R=0.049)  charge=  0.2700  magn=  0.0000
     atom  62 (R=0.049)  charge=  0.2682  magn=  0.0000
     atom  63 (R=0.049)  charge=  0.2713  magn= -0.0000
     atom  64 (R=0.049)  charge=  0.2983  magn=  0.0000
     atom  65 (R=0.049)  charge=  0.3227  magn=  0.0000
     atom  66 (R=0.049)  charge=  0.2522  magn= -0.0000
     atom  67 (R=0.049)  charge=  4.7503  magn= -0.0000
     atom  68 (R=0.049)  charge=  4.7500  magn=  0.0000
     atom  69 (R=0.049)  charge=  4.7502  magn= -0.0000
     atom  70 (R=0.049)  charge=  4.8454  magn=  0.0000
     atom  71 (R=0.049)  charge=  4.8449  magn=  0.0000
     atom  72 (R=0.049)  charge=  4.8438  magn=  0.0000
     atom  73 (R=0.049)  charge=  4.8098  magn= -0.0000
     atom  74 (R=0.049)  charge=  4.8100  magn=  0.0000
     atom  75 (R=0.049)  charge=  4.8098  magn=  0.0000
     atom  76 (R=0.049)  charge=  0.2701  magn=  0.0000
     atom  77 (R=0.049)  charge=  0.2682  magn=  0.0000
     atom  78 (R=0.049)  charge=  0.2713  magn= -0.0000
     atom  79 (R=0.049)  charge=  0.2983  magn=  0.0000
     atom  80 (R=0.049)  charge=  0.3240  magn=  0.0000
     atom  81 (R=0.049)  charge=  0.2522  magn= -0.0000
     atom  82 (R=0.049)  charge=  4.7497  magn=  0.0000
     atom  83 (R=0.049)  charge=  4.7497  magn=  0.0000
     atom  84 (R=0.049)  charge=  4.7497  magn=  0.0000
     atom  85 (R=0.049)  charge=  4.8449  magn=  0.0000
     atom  86 (R=0.049)  charge=  4.8438  magn=  0.0000
     atom  87 (R=0.049)  charge=  4.8454  magn=  0.0000
     atom  88 (R=0.049)  charge=  4.8100  magn=  0.0000
     atom  89 (R=0.049)  charge=  4.8098  magn=  0.0000
     atom  90 (R=0.049)  charge=  4.8100  magn=  0.0000
     atom  91 (R=0.049)  charge=  0.2700  magn=  0.0000
     atom  92 (R=0.049)  charge=  0.2681  magn=  0.0000
     atom  93 (R=0.049)  charge=  0.2713  magn= -0.0000
     atom  94 (R=0.049)  charge=  0.2983  magn=  0.0000
     atom  95 (R=0.049)  charge=  0.3227  magn=  0.0000
     atom  96 (R=0.049)  charge=  0.2521  magn= -0.0000
     atom  97 (R=0.049)  charge=  4.7502  magn=  0.0000
     atom  98 (R=0.049)  charge=  4.7503  magn= -0.0000
     atom  99 (R=0.049)  charge=  4.7500  magn=  0.0000
     atom 100 (R=0.049)  charge=  4.8432  magn=  0.0000
     atom 101 (R=0.049)  charge=  4.8437  magn=  0.0000
     atom 102 (R=0.049)  charge=  4.8441  magn=  0.0000
     atom 103 (R=0.049)  charge=  4.8098  magn=  0.0000
     atom 104 (R=0.049)  charge=  4.8097  magn=  0.0000
     atom 105 (R=0.049)  charge=  4.8100  magn= -0.0000
     atom 106 (R=0.049)  charge=  0.2700  magn=  0.0000
     atom 107 (R=0.049)  charge=  0.2681  magn=  0.0000
     atom 108 (R=0.049)  charge=  0.2713  magn= -0.0000
     atom 109 (R=0.049)  charge=  0.2983  magn=  0.0000
     atom 110 (R=0.049)  charge=  0.3226  magn=  0.0000
     atom 111 (R=0.049)  charge=  0.2521  magn= -0.0000
     atom 112 (R=0.049)  charge=  4.7504  magn= -0.0000
     atom 113 (R=0.049)  charge=  4.7504  magn= -0.0000
     atom 114 (R=0.049)  charge=  4.7504  magn= -0.0000
     atom 115 (R=0.049)  charge=  4.8437  magn=  0.0000
     atom 116 (R=0.049)  charge=  4.8441  magn=  0.0000
     atom 117 (R=0.049)  charge=  4.8431  magn=  0.0000
     atom 118 (R=0.049)  charge=  4.8097  magn=  0.0000
     atom 119 (R=0.049)  charge=  4.8100  magn= -0.0000
     atom 120 (R=0.049)  charge=  4.8097  magn=  0.0000
     atom 121 (R=0.049)  charge=  0.2700  magn=  0.0000
     atom 122 (R=0.049)  charge=  0.2682  magn=  0.0000
     atom 123 (R=0.049)  charge=  0.2713  magn= -0.0000
     atom 124 (R=0.049)  charge=  0.2983  magn=  0.0000
     atom 125 (R=0.049)  charge=  0.3227  magn=  0.0000
     atom 126 (R=0.049)  charge=  0.2522  magn= -0.0000
     atom 127 (R=0.049)  charge=  4.7503  magn=  0.0000
     atom 128 (R=0.049)  charge=  4.7502  magn=  0.0000
     atom 129 (R=0.049)  charge=  4.7500  magn= -0.0000
     atom 130 (R=0.049)  charge=  4.8438  magn=  0.0000
     atom 131 (R=0.049)  charge=  4.8454  magn=  0.0000
     atom 132 (R=0.049)  charge=  4.8449  magn=  0.0000
     atom 133 (R=0.049)  charge=  4.8097  magn=  0.0000
     atom 134 (R=0.049)  charge=  4.8100  magn=  0.0000
     atom 135 (R=0.049)  charge=  4.8100  magn=  0.0000
     atom 136 (R=0.076)  charge= 10.0981  magn=  0.0002
     atom 137 (R=0.076)  charge=  4.0586  magn=  0.0000
     atom 138 (R=0.076)  charge=  4.0596  magn=  0.0000
     atom 139 (R=0.076)  charge= 10.0977  magn=  0.0002
     atom 140 (R=0.076)  charge=  4.0599  magn=  0.0000
     atom 141 (R=0.076)  charge=  4.0638  magn=  0.0000
     atom 142 (R=0.076)  charge= 10.0973  magn=  0.0002
     atom 143 (R=0.076)  charge=  4.0577  magn=  0.0000
     atom 144 (R=0.076)  charge=  4.0693  magn=  0.0000
     atom 145 (R=0.076)  charge= 10.1007  magn=  0.0002
     atom 146 (R=0.076)  charge=  4.0586  magn=  0.0000
     atom 147 (R=0.076)  charge=  4.0597  magn=  0.0000
     atom 148 (R=0.076)  charge= 10.0977  magn=  0.0002
     atom 149 (R=0.076)  charge=  4.0577  magn=  0.0000
     atom 150 (R=0.076)  charge=  4.0609  magn=  0.0000
     atom 151 (R=0.076)  charge= 10.1006  magn=  0.0001
     atom 152 (R=0.076)  charge=  4.0579  magn=  0.0000
     atom 153 (R=0.076)  charge=  4.0693  magn=  0.0000
     atom 154 (R=0.076)  charge= 10.0957  magn=  0.0002
     atom 155 (R=0.076)  charge=  4.0589  magn=  0.0000
     atom 156 (R=0.076)  charge=  4.0774  magn=  0.0000
     atom 157 (R=0.076)  charge= 10.0953  magn=  0.0002
     atom 158 (R=0.076)  charge=  4.0597  magn=  0.0000
     atom 159 (R=0.076)  charge=  4.0639  magn=  0.0000
     atom 160 (R=0.076)  charge= 10.0974  magn=  0.0001
     atom 161 (R=0.076)  charge=  4.0574  magn=  0.0000
     atom 162 (R=0.076)  charge=  4.0581  magn=  0.0000
     atom 163 (R=0.076)  charge= 10.0962  magn=  0.0001
     atom 164 (R=0.076)  charge=  4.0574  magn=  0.0000
     atom 165 (R=0.076)  charge=  4.0581  magn=  0.0000
     atom 166 (R=0.076)  charge= 10.0977  magn=  0.0001
     atom 167 (R=0.076)  charge=  4.0596  magn=  0.0000
     atom 168 (R=0.076)  charge=  4.0639  magn=  0.0000
     atom 169 (R=0.076)  charge= 10.0951  magn=  0.0002
     atom 170 (R=0.076)  charge=  4.0577  magn=  0.0000
     atom 171 (R=0.076)  charge=  4.0692  magn=  0.0000
     atom 172 (R=0.076)  charge= 10.1007  magn=  0.0001
     atom 173 (R=0.076)  charge=  4.0577  magn=  0.0000
     atom 174 (R=0.076)  charge=  4.0610  magn=  0.0000
     atom 175 (R=0.076)  charge= 10.0964  magn=  0.0001
     atom 176 (R=0.076)  charge=  4.0573  magn=  0.0000
     atom 177 (R=0.076)  charge=  4.0580  magn=  0.0000
     atom 178 (R=0.076)  charge= 10.0960  magn=  0.0001
     atom 179 (R=0.076)  charge=  4.0576  magn=  0.0000
     atom 180 (R=0.076)  charge=  4.0609  magn=  0.0000
     atom 181 (R=0.076)  charge= 10.0975  magn=  0.0001
     atom 182 (R=0.076)  charge=  4.0586  magn=  0.0000
     atom 183 (R=0.076)  charge=  4.0597  magn=  0.0000

     total cpu time spent up to now is     1266.7 secs

     End of self-consistent calculation

 ------ SPIN UP ------------


          k = 0.0000 0.0000 0.0000 (320189 PWs)   bands (ev):

   -59.6526 -59.6483 -59.6471 -59.6125 -59.6113 -59.6108 -59.5937 -59.5902
   -59.5898 -59.5887 -59.5862 -59.5857 -59.5796 -59.5793 -59.5787 -59.5689
   -35.7964 -35.7960 -35.7959 -35.7667 -35.7568 -35.7523 -35.7521 -35.7446
   -35.7445 -35.7088 -35.7084 -35.7002 -35.6957 -35.6932 -35.6930 -35.6834
   -35.6829 -35.6808 -35.6786 -35.6713 -35.6668 -35.6666 -35.6639 -35.6630
   -35.6408 -35.6386 -35.6382 -35.6356 -35.6340 -35.6335 -35.6239 -35.6234
   -35.6205 -35.6203 -35.6176 -35.6174 -35.6124 -35.6099 -35.6096 -35.6049
   -35.6047 -35.6011 -35.6000 -35.5997 -35.5995 -35.5923 -35.5879 -35.5879
   -23.8059 -23.3659 -23.3544 -23.3543 -23.3089 -23.3088 -23.2945 -22.7487
   -22.7487 -22.7245 -22.4586 -22.4585 -22.4114 -22.3944 -22.3943 -22.3806
   -22.3748 -22.3426 -22.3425 -22.3395 -22.1665 -22.1665 -22.1583 -22.1539
   -22.1538 -22.1487 -21.8977 -21.8229 -21.8112 -21.8083 -21.8082 -21.7863
   -21.7859 -21.7858 -21.7410 -21.7409 -21.7294 -21.6802 -21.6801 -21.6680
   -21.6576 -21.6576 -21.6346 -21.6295 -21.6294 -21.5351 -21.5349 -21.5236
   -21.5165 -21.5164 -21.4987 -21.4986 -21.4978 -21.4336 -21.4333 -21.4332
   -21.3865 -21.3779 -21.3778 -21.3356 -21.3355 -21.2596 -21.2575 -21.1715
   -21.1715 -21.1645 -21.1645 -21.0766 -21.0752 -21.0752 -21.0741 -21.0740
   -21.0739 -20.9528 -20.9527 -20.9527 -20.9474 -20.9467 -20.9467 -20.8544
   -20.8544 -17.8476 -17.3386 -17.3313 -17.3308 -17.3051 -17.3048 -17.2842
   -16.8391 -16.7894 -16.7568 -16.7103 -16.7102 -16.6750 -16.6747 -16.6587
   -16.6567 -16.6564 -16.6220 -16.6208 -16.6205 -16.5978 -16.5975 -16.5887
   -16.3849 -16.3692 -16.3523 -16.3522 -16.3261 -16.3260 -16.3235 -16.3173
   -16.3172 -11.0876 -11.0526 -11.0496 -11.0496 -11.0236 -11.0236 -11.0174
   -10.7123 -10.7064 -10.7063 -10.6856 -10.6842 -10.6842 -10.5383 -10.5307
   -10.5100 -10.5099 -10.5095 -10.5041 -10.5040 -10.4913 -10.4798 -10.4786
   -10.4785 -10.3059 -10.3059 -10.0926 -10.0926 -10.0799 -10.0799 -10.0691
   -10.0530 -10.0528 -10.0428 -10.0410 -10.0409  -9.6935  -9.6896  -9.6896
    -9.6895  -9.6659  -9.6659  -9.6621  -9.5432  -9.5415  -9.4594  -9.4594
    -9.3040  -9.3040  -9.2958  -9.2621  -9.2584  -9.2484  -9.2484  -9.1739
    -9.1737  -9.1638  -9.1323  -9.1323  -9.0271  -9.0096  -9.0027  -9.0026
    -8.9960  -8.9959  -8.9806  -8.9424  -8.9300  -8.9241  -8.9241  -8.8232
    -8.8232  -8.6759  -8.6689  -8.6687  -8.6374  -8.6373  -8.6190  -8.6189
    -8.6159  -8.6109  -8.6106  -8.6037  -8.5953  -8.5946  -8.5933  -8.4820
    -8.3770  -8.3722  -8.3720  -8.3483  -8.3483  -8.3396  -8.3197  -8.3173
    -8.3173  -8.2730  -8.2727  -8.2716  -8.2636  -8.2604  -8.2603  -8.2310
    -8.2294  -8.2291  -8.1430  -8.1288  -8.1287  -8.1284  -8.0716  -8.0716
    -8.0635  -8.0535  -8.0534  -8.0466  -8.0035  -7.9955  -7.9947  -7.9946
    -7.9679  -7.9678  -7.9060  -7.8582  -7.8579  -7.8485  -7.8331  -7.8329
    -7.8308  -7.8041  -7.8041  -7.7954  -7.7780  -7.7687  -7.7685  -7.7347
    -7.7085  -7.7084  -7.6462  -7.6244  -7.6242  -7.6241  -7.6119  -7.6118
    -7.4401  -7.4239  -7.4237  -7.4125  -7.4124  -7.3969  -7.3410  -7.3387
    -7.3386  -7.3156  -7.3156  -7.3118  -7.2115  -7.2115  -7.1994  -7.1993
    -7.1973  -7.1829  -7.1632  -7.1630  -7.1233  -7.0863  -7.0750  -7.0749
    -7.0604  -7.0543  -7.0517  -7.0514  -7.0387  -7.0335  -7.0332  -6.9401
    -6.9400  -6.9290  -6.9174  -6.9174  -6.9021  -6.8881  -6.8814  -6.8813
    -6.8585  -6.8583  -6.8328  -6.8325  -6.8271  -6.8247  -6.8167  -6.8166
    -6.8077  -6.8071  -6.7932  -6.7897  -6.7892  -6.7887  -6.7740  -6.7730
    -6.7710  -6.7633  -6.7577  -6.7577  -6.6523  -6.6523  -6.6431  -6.6239
    -6.6238  -6.6125  -6.5909  -6.5909  -6.5496  -6.5496  -6.5452  -6.5242
    -6.5241  -6.5079  -6.5078  -6.5027  -6.4632  -6.4632  -6.4494  -6.4492
    -6.4364  -6.4282  -6.3793  -6.3609  -6.3609  -6.3479  -6.3478  -6.3341
    -6.3270  -6.3180  -6.3176  -6.2998  -6.2996  -6.2930  -6.1719  -6.1719
    -6.1278  -6.1022  -6.1021  -6.0961  -6.0724  -6.0723  -6.0710  -6.0584
    -6.0547  -6.0545  -6.0401  -6.0401  -6.0256  -6.0048  -6.0047  -5.9906
    -5.9906  -5.9595  -5.9429  -5.9419  -5.9416  -5.9209  -5.9208  -5.9128
    -5.9014  -5.9007  -5.8982  -5.8850  -5.8815  -5.8814  -5.8603  -5.7189
    -5.7179  -5.7177  -5.7039  -5.7037  -5.6762  -5.6499  -5.6382  -5.6381
    -5.6209  -5.6013  -5.5835  -5.5833  -5.5255  -5.5253  -5.5111  -5.5110
    -5.4949  -5.4948  -5.4590  -5.4525  -5.4521  -5.4237  -5.4198  -5.4198
    -5.3878  -5.3812  -5.3809  -5.3717  -5.3492  -5.3491  -5.3403  -5.3165
    -5.3161  -5.3079  -5.3075  -5.2921  -5.2804  -5.2427  -5.2422  -5.1828
    -5.1747  -5.1746  -5.1597  -5.1596  -5.1566  -5.1313  -5.1312  -5.1184
    -5.0759  -5.0650  -5.0409  -5.0408  -4.9969  -4.9787  -4.9783  -4.9653
    -4.9466  -4.9464  -4.7336  -4.7336  -4.7294  -4.7278  -4.7278  -4.7239
    -4.7205  -4.7205  -4.5412  -4.5411  -4.5376  -4.4737  -4.4737  -4.4379
    -4.4195  -4.4195  -4.4149  -4.4113  -4.4112  -4.3950  -4.3947  -4.3902
    -4.3785  -4.3735  -4.3729  -4.0287  -3.7047  -3.7043  -3.7043  -3.6961
    -3.6961  -3.6954  -3.5574  -3.5548  -3.5548  -2.2762  -2.2755  -2.2750
    -2.2449  -2.2444  -2.2405  -2.2041  -2.2040  -2.1830  -2.0347  -2.0345
    -2.0206  -2.0113  -2.0109  -1.9688  -1.9454  -1.9434  -1.9345  -1.9333
    -1.9184  -1.9183  -1.8448  -1.8445  -1.8432  -1.8005  -1.7945  -1.7154
    -1.7149  -1.6835  -1.6800  -1.6797  -1.6679  -1.6675  -1.6455  -1.6438
    -1.6435  -1.6233  -1.6230  -1.4372  -1.4371  -1.4179  -1.3270  -1.3195
    -1.1814  -1.1805  -1.1762  -1.1753  -0.8057  -0.8050  -0.8043  -0.7947
    -0.7885  -0.7884  -0.7645  -0.7644  -0.7613  -0.6108  -0.6096  -0.6096
    -0.6084  -0.6084  -0.6081  -0.3274  -0.2928  -0.2829  -0.2240  -0.2236
    -0.2101  -0.2101  -0.1872  -0.1751  -0.1749  -0.0925   0.1062   0.1063
     0.1344   0.1355   0.1355   0.1371   0.1371   0.1378   0.2198   0.2200
     0.7345   0.8337   0.8649   0.8655   0.9805   0.9810   0.9810   0.9822
     0.9831   0.9831   1.0213   1.1419   1.3505   1.3510   1.3877   1.3877
     1.4951   1.5101   1.5558   1.5579   1.5581   1.6105   1.7048   1.7264
     1.7265   1.7683

     occupation numbers 
     1.0000   1.0000   1.0000   1.0000   1.0000   1.0000   1.0000   1.0000
     1.0000   1.0000   1.0000   1.0000   1.0000   1.0000   1.0000   1.0000
     1.0000   1.0000   1.0000   1.0000   1.0000   1.0000   1.0000   1.0000
     1.0000   1.0000   1.0000   1.0000   1.0000   1.0000   1.0000   1.0000
     1.0000   1.0000   1.0000   1.0000   1.0000   1.0000   1.0000   1.0000
     1.0000   1.0000   1.0000   1.0000   1.0000   1.0000   1.0000   1.0000
     1.0000   1.0000   1.0000   1.0000   1.0000   1.0000   1.0000   1.0000
     1.0000   1.0000   1.0000   1.0000   1.0000   1.0000   1.0000   1.0000
     1.0000   1.0000   1.0000   1.0000   1.0000   1.0000   1.0000   1.0000
     1.0000   1.0000   1.0000   1.0000   1.0000   1.0000   1.0000   1.0000
     1.0000   1.0000   1.0000   1.0000   1.0000   1.0000   1.0000   1.0000
     1.0000   1.0000   1.0000   1.0000   1.0000   1.0000   1.0000   1.0000
     1.0000   1.0000   1.0000   1.0000   1.0000   1.0000   1.0000   1.0000
     1.0000   1.0000   1.0000   1.0000   1.0000   1.0000   1.0000   1.0000
     1.0000   1.0000   1.0000   1.0000   1.0000   1.0000   1.0000   1.0000
     1.0000   1.0000   1.0000   1.0000   1.0000   1.0000   1.0000   1.0000
     1.0000   1.0000   1.0000   1.0000   1.0000   1.0000   1.0000   1.0000
     1.0000   1.0000   1.0000   1.0000   1.0000   1.0000   1.0000   1.0000
     1.0000   1.0000   1.0000   1.0000   1.0000   1.0000   1.0000   1.0000
     1.0000   1.0000   1.0000   1.0000   1.0000   1.0000   1.0000   1.0000
     1.0000   1.0000   1.0000   1.0000   1.0000   1.0000   1.0000   1.0000
     1.0000   1.0000   1.0000   1.0000   1.0000   1.0000   1.0000   1.0000
     1.0000   1.0000   1.0000   1.0000   1.0000   1.0000   1.0000   1.0000
     1.0000   1.0000   1.0000   1.0000   1.0000   1.0000   1.0000   1.0000
     1.0000   1.0000   1.0000   1.0000   1.0000   1.0000   1.0000   1.0000
     1.0000   1.0000   1.0000   1.0000   1.0000   1.0000   1.0000   1.0000
     1.0000   1.0000   1.0000   1.0000   1.0000   1.0000   1.0000   1.0000
     1.0000   1.0000   1.0000   1.0000   1.0000   1.0000   1.0000   1.0000
     1.0000   1.0000   1.0000   1.0000   1.0000   1.0000   1.0000   1.0000
     1.0000   1.0000   1.0000   1.0000   1.0000   1.0000   1.0000   1.0000
     1.0000   1.0000   1.0000   1.0000   1.0000   1.0000   1.0000   1.0000
     1.0000   1.0000   1.0000   1.0000   1.0000   1.0000   1.0000   1.0000
     1.0000   1.0000   1.0000   1.0000   1.0000   1.0000   1.0000   1.0000
     1.0000   1.0000   1.0000   1.0000   1.0000   1.0000   1.0000   1.0000
     1.0000   1.0000   1.0000   1.0000   1.0000   1.0000   1.0000   1.0000
     1.0000   1.0000   1.0000   1.0000   1.0000   1.0000   1.0000   1.0000
     1.0000   1.0000   1.0000   1.0000   1.0000   1.0000   1.0000   1.0000
     1.0000   1.0000   1.0000   1.0000   1.0000   1.0000   1.0000   1.0000
     1.0000   1.0000   1.0000   1.0000   1.0000   1.0000   1.0000   1.0000
     1.0000   1.0000   1.0000   1.0000   1.0000   1.0000   1.0000   1.0000
     1.0000   1.0000   1.0000   1.0000   1.0000   1.0000   1.0000   1.0000
     1.0000   1.0000   1.0000   1.0000   1.0000   1.0000   1.0000   1.0000
     1.0000   1.0000   1.0000   1.0000   1.0000   1.0000   1.0000   1.0000
     1.0000   1.0000   1.0000   1.0000   1.0000   1.0000   1.0000   1.0000
     1.0000   1.0000   1.0000   1.0000   1.0000   1.0000   1.0000   1.0000
     1.0000   1.0000   1.0000   1.0000   1.0000   1.0000   1.0000   1.0000
     1.0000   1.0000   1.0000   1.0000   1.0000   1.0000   1.0000   1.0000
     1.0000   1.0000   1.0000   1.0000   1.0000   1.0000   1.0000   1.0000
     1.0000   1.0000   1.0000   1.0000   1.0000   1.0000   1.0000   1.0000
     1.0000   1.0000   1.0000   1.0000   1.0000   1.0000   1.0000   1.0000
     1.0000   1.0000   1.0000   1.0000   1.0000   1.0000   1.0000   1.0000
     1.0000   1.0000   1.0000   1.0000   1.0000   1.0000   1.0000   1.0000
     1.0000   1.0000   1.0000   1.0000   1.0000   1.0000   1.0000   1.0000
     1.0000   1.0000   1.0000   1.0000   1.0000   1.0000   1.0000   1.0000
     1.0000   1.0000   1.0000   1.0000   1.0000   1.0000   1.0000   1.0000
     1.0000   1.0000   1.0000   1.0000   1.0000   1.0000   1.0000   1.0000
     1.0000   1.0000   1.0000   1.0000   1.0000   1.0000   1.0000   1.0000
     1.0000   1.0000   1.0000   1.0000   1.0000   1.0000   1.0000   1.0000
     1.0000   1.0000   1.0000   1.0000   1.0000   1.0000   1.0000   1.0000
     1.0001   1.0001   1.0001   1.0001   1.0001   1.0001   1.0002   1.0002
     1.0002   1.0003   1.0003   1.0004   1.0005   1.0009   1.0010   1.0025
     1.0028   1.0028   1.0035   1.0035   1.0037   1.0053   1.0053   1.0063
     1.0109   1.0124   1.0163   1.0163   1.0258   1.0306   1.0307   1.0344
     1.0402   1.0403   1.0736   1.0736   1.0718   1.0710   1.0710   1.0691
     1.0673   1.0673   0.7822   0.7819   0.7731   0.6007   0.6007   0.5024
     0.4531   0.4530   0.4411   0.4316   0.4313   0.3903   0.3895   0.3784
     0.3503   0.3385   0.3370   0.0073   0.0000   0.0000   0.0000   0.0000
     0.0000   0.0000   0.0000   0.0000   0.0000   0.0000   0.0000   0.0000
     0.0000   0.0000   0.0000   0.0000   0.0000   0.0000   0.0000   0.0000
     0.0000   0.0000   0.0000   0.0000   0.0000   0.0000   0.0000   0.0000
     0.0000   0.0000   0.0000   0.0000   0.0000   0.0000   0.0000   0.0000
     0.0000   0.0000   0.0000   0.0000   0.0000   0.0000   0.0000   0.0000
     0.0000   0.0000   0.0000   0.0000   0.0000   0.0000   0.0000   0.0000
     0.0000   0.0000   0.0000   0.0000   0.0000   0.0000   0.0000   0.0000
     0.0000   0.0000   0.0000   0.0000   0.0000   0.0000   0.0000   0.0000
     0.0000   0.0000   0.0000   0.0000   0.0000   0.0000   0.0000   0.0000
     0.0000   0.0000   0.0000   0.0000   0.0000   0.0000   0.0000   0.0000
     0.0000   0.0000   0.0000   0.0000   0.0000   0.0000   0.0000   0.0000
     0.0000   0.0000   0.0000   0.0000   0.0000   0.0000   0.0000   0.0000
     0.0000   0.0000   0.0000   0.0000   0.0000   0.0000   0.0000   0.0000
     0.0000   0.0000   0.0000   0.0000   0.0000   0.0000   0.0000   0.0000
     0.0000   0.0000

          k = 0.0000-0.5774 0.0000 (319994 PWs)   bands (ev):

   -59.6526 -59.6483 -59.6471 -59.6126 -59.6112 -59.6108 -59.5934 -59.5913
   -59.5899 -59.5872 -59.5867 -59.5859 -59.5797 -59.5793 -59.5786 -59.5689
   -35.7913 -35.7902 -35.7857 -35.7713 -35.7626 -35.7551 -35.7535 -35.7459
   -35.7348 -35.7299 -35.7289 -35.7221 -35.7039 -35.6975 -35.6839 -35.6786
   -35.6780 -35.6759 -35.6673 -35.6640 -35.6635 -35.6555 -35.6485 -35.6449
   -35.6424 -35.6405 -35.6386 -35.6349 -35.6346 -35.6313 -35.6281 -35.6260
   -35.6256 -35.6184 -35.6175 -35.6159 -35.6153 -35.6108 -35.6085 -35.6067
   -35.6054 -35.6022 -35.6011 -35.5999 -35.5990 -35.5985 -35.5919 -35.5895
   -23.6988 -23.6661 -23.4445 -23.4379 -23.0423 -23.0380 -23.0241 -23.0166
   -22.9291 -22.6559 -22.6381 -22.6091 -22.4573 -22.4536 -22.4466 -22.4359
   -22.4017 -22.3975 -22.1336 -22.1280 -22.1105 -22.1068 -22.0177 -22.0069
   -21.9934 -21.9842 -21.9610 -21.9494 -21.9354 -21.9214 -21.8579 -21.8424
   -21.8398 -21.8367 -21.8068 -21.7355 -21.7288 -21.7043 -21.7009 -21.6853
   -21.6799 -21.6581 -21.6529 -21.6172 -21.5994 -21.5281 -21.5160 -21.5117
   -21.4980 -21.4590 -21.4526 -21.4415 -21.4288 -21.4156 -21.4116 -21.4034
   -21.3914 -21.3815 -21.3770 -21.3578 -21.3512 -21.3314 -21.3146 -21.2809
   -21.1721 -21.1698 -21.1592 -21.1566 -21.0299 -21.0291 -21.0256 -21.0231
   -20.9989 -20.9967 -20.9800 -20.9577 -20.9571 -20.9135 -20.9114 -20.8886
   -20.8865 -17.7107 -17.6881 -17.4369 -17.4269 -17.0361 -17.0283 -17.0206
   -17.0159 -16.9125 -16.8538 -16.7855 -16.7637 -16.7357 -16.7059 -16.6908
   -16.6591 -16.6573 -16.6529 -16.5575 -16.5548 -16.4888 -16.4871 -16.4832
   -16.4794 -16.4426 -16.4073 -16.3588 -16.3470 -16.3382 -16.3209 -16.2711
   -16.2698 -11.1175 -11.0165 -10.9972 -10.8980 -10.8896 -10.8817 -10.8674
   -10.8539 -10.8344 -10.8011 -10.7507 -10.7421 -10.6808 -10.6696 -10.6606
   -10.6414 -10.6342 -10.6276 -10.4656 -10.4639 -10.3742 -10.3631 -10.3455
   -10.3368 -10.3262 -10.3114 -10.2965 -10.2896 -10.1957 -10.1871 -10.1724
   -10.0934 -10.0803 -10.0322 -10.0158  -9.8883  -9.7766  -9.6549  -9.6478
    -9.6356  -9.6275  -9.5791  -9.5747  -9.4630  -9.4489  -9.3160  -9.2948
    -9.2827  -9.2697  -9.2566  -9.2524  -9.1531  -9.1513  -9.1381  -9.1282
    -9.1205  -9.1103  -9.1020  -9.0817  -9.0441  -9.0245  -9.0166  -8.9976
    -8.9855  -8.9410  -8.9335  -8.9084  -8.9027  -8.9012  -8.8718  -8.8186
    -8.7969  -8.7920  -8.7593  -8.7506  -8.7171  -8.7071  -8.6918  -8.6808
    -8.6320  -8.6250  -8.6219  -8.6172  -8.6171  -8.6101  -8.5782  -8.5413
    -8.5357  -8.5103  -8.5063  -8.4989  -8.4977  -8.4417  -8.4261  -8.3999
    -8.3890  -8.3777  -8.3468  -8.3400  -8.2845  -8.2711  -8.2613  -8.2421
    -8.1997  -8.1968  -8.1783  -8.1187  -8.1086  -8.0623  -8.0569  -8.0525
    -8.0404  -8.0294  -7.9958  -7.9774  -7.9654  -7.9545  -7.9332  -7.9280
    -7.9225  -7.8758  -7.8574  -7.8494  -7.8339  -7.8198  -7.8096  -7.7809
    -7.7729  -7.7647  -7.7272  -7.7132  -7.7066  -7.6823  -7.6717  -7.6478
    -7.6381  -7.6280  -7.6136  -7.6074  -7.5983  -7.5884  -7.5785  -7.5639
    -7.5594  -7.5558  -7.5327  -7.5266  -7.4858  -7.4465  -7.4267  -7.4171
    -7.4128  -7.3873  -7.3131  -7.3010  -7.2971  -7.2886  -7.2681  -7.2632
    -7.2530  -7.2400  -7.2388  -7.2131  -7.1687  -7.1659  -7.1413  -7.1004
    -7.0890  -7.0839  -7.0770  -7.0699  -7.0551  -7.0043  -7.0020  -6.9780
    -6.9429  -6.9401  -6.9354  -6.9310  -6.9224  -6.9141  -6.9084  -6.8908
    -6.8888  -6.8564  -6.8551  -6.8413  -6.8281  -6.8199  -6.8027  -6.7940
    -6.7886  -6.7811  -6.7771  -6.7687  -6.7607  -6.7545  -6.7452  -6.7421
    -6.7366  -6.7292  -6.7079  -6.7006  -6.6972  -6.6859  -6.6760  -6.6483
    -6.6355  -6.6075  -6.5631  -6.5552  -6.5193  -6.5021  -6.4797  -6.4736
    -6.4298  -6.4138  -6.4074  -6.4012  -6.3955  -6.3912  -6.3870  -6.3817
    -6.3604  -6.3359  -6.3234  -6.2995  -6.2865  -6.2410  -6.2359  -6.2183
    -6.2123  -6.1959  -6.1880  -6.1797  -6.1734  -6.1686  -6.1646  -6.1586
    -6.1418  -6.1373  -6.1298  -6.1282  -6.1122  -6.1076  -6.0919  -6.0794
    -6.0648  -6.0578  -6.0513  -6.0440  -6.0395  -6.0333  -6.0304  -6.0247
    -6.0213  -6.0143  -6.0053  -6.0034  -5.9541  -5.9470  -5.9345  -5.9242
    -5.8880  -5.8857  -5.8595  -5.8315  -5.8289  -5.8149  -5.8057  -5.7864
    -5.7845  -5.7779  -5.7713  -5.7638  -5.7542  -5.7287  -5.7249  -5.7092
    -5.6914  -5.6634  -5.6496  -5.6421  -5.6215  -5.6117  -5.6070  -5.5917
    -5.5711  -5.5427  -5.5295  -5.5134  -5.4999  -5.4851  -5.4583  -5.4356
    -5.4187  -5.4143  -5.3992  -5.3801  -5.3706  -5.3565  -5.3503  -5.3348
    -5.3167  -5.2846  -5.2763  -5.2713  -5.2523  -5.2385  -5.2295  -5.2063
    -5.1987  -5.1879  -5.1386  -5.1296  -5.1269  -5.1040  -5.0823  -5.0668
    -5.0460  -5.0447  -5.0225  -5.0134  -4.9932  -4.9676  -4.9444  -4.8606
    -4.8385  -4.8062  -4.7615  -4.7596  -4.7537  -4.7512  -4.7481  -4.7397
    -4.6775  -4.6539  -4.6367  -4.6362  -4.5993  -4.5988  -4.5873  -4.5817
    -4.5418  -4.5386  -4.4533  -4.4360  -4.4150  -4.4034  -4.2440  -4.2282
    -4.0956  -4.0901  -3.9190  -3.9173  -3.8009  -3.7662  -3.7534  -3.7530
    -3.6050  -3.6038  -3.6005  -3.5969  -3.5891  -2.6626  -2.6556  -2.2624
    -2.2299  -2.2196  -2.2059  -2.1969  -2.1862  -2.1807  -2.1477  -2.1449
    -2.1372  -2.0767  -2.0633  -1.9895  -1.9813  -1.9436  -1.9250  -1.9189
    -1.9156  -1.9001  -1.8933  -1.8748  -1.8532  -1.8425  -1.8298  -1.8057
    -1.7908  -1.7809  -1.7627  -1.7477  -1.7151  -1.6327  -1.6263  -1.5524
    -1.5498  -1.5406  -1.5355  -1.3924  -1.3567  -1.2371  -1.2326  -1.1927
    -1.1919  -1.1538  -1.0085  -0.9989  -0.9928  -0.9556  -0.9247  -0.8891
    -0.8695  -0.8302  -0.8289  -0.7763  -0.7760  -0.4289  -0.4108  -0.3991
    -0.3937  -0.3843  -0.3615  -0.3443  -0.3351  -0.3293  -0.3234  -0.3064
    -0.3044  -0.3032  -0.3017  -0.3007  -0.2445  -0.2357  -0.1323  -0.1312
     0.1242   0.1244   0.4760   0.4767   0.4796   0.4806   0.6155   0.6358
     0.6768   0.9022   0.9751   1.0049   1.0159   1.0172   1.0196   1.0218
     1.0228   1.0379   1.0768   1.1112   1.1357   1.2153   1.2554   1.3256
     1.3271   1.4229   1.4488   1.4907   1.5379   1.5582   1.5607   1.5658
     1.5662   1.6257

     occupation numbers 
     1.0000   1.0000   1.0000   1.0000   1.0000   1.0000   1.0000   1.0000
     1.0000   1.0000   1.0000   1.0000   1.0000   1.0000   1.0000   1.0000
     1.0000   1.0000   1.0000   1.0000   1.0000   1.0000   1.0000   1.0000
     1.0000   1.0000   1.0000   1.0000   1.0000   1.0000   1.0000   1.0000
     1.0000   1.0000   1.0000   1.0000   1.0000   1.0000   1.0000   1.0000
     1.0000   1.0000   1.0000   1.0000   1.0000   1.0000   1.0000   1.0000
     1.0000   1.0000   1.0000   1.0000   1.0000   1.0000   1.0000   1.0000
     1.0000   1.0000   1.0000   1.0000   1.0000   1.0000   1.0000   1.0000
     1.0000   1.0000   1.0000   1.0000   1.0000   1.0000   1.0000   1.0000
     1.0000   1.0000   1.0000   1.0000   1.0000   1.0000   1.0000   1.0000
     1.0000   1.0000   1.0000   1.0000   1.0000   1.0000   1.0000   1.0000
     1.0000   1.0000   1.0000   1.0000   1.0000   1.0000   1.0000   1.0000
     1.0000   1.0000   1.0000   1.0000   1.0000   1.0000   1.0000   1.0000
     1.0000   1.0000   1.0000   1.0000   1.0000   1.0000   1.0000   1.0000
     1.0000   1.0000   1.0000   1.0000   1.0000   1.0000   1.0000   1.0000
     1.0000   1.0000   1.0000   1.0000   1.0000   1.0000   1.0000   1.0000
     1.0000   1.0000   1.0000   1.0000   1.0000   1.0000   1.0000   1.0000
     1.0000   1.0000   1.0000   1.0000   1.0000   1.0000   1.0000   1.0000
     1.0000   1.0000   1.0000   1.0000   1.0000   1.0000   1.0000   1.0000
     1.0000   1.0000   1.0000   1.0000   1.0000   1.0000   1.0000   1.0000
     1.0000   1.0000   1.0000   1.0000   1.0000   1.0000   1.0000   1.0000
     1.0000   1.0000   1.0000   1.0000   1.0000   1.0000   1.0000   1.0000
     1.0000   1.0000   1.0000   1.0000   1.0000   1.0000   1.0000   1.0000
     1.0000   1.0000   1.0000   1.0000   1.0000   1.0000   1.0000   1.0000
     1.0000   1.0000   1.0000   1.0000   1.0000   1.0000   1.0000   1.0000
     1.0000   1.0000   1.0000   1.0000   1.0000   1.0000   1.0000   1.0000
     1.0000   1.0000   1.0000   1.0000   1.0000   1.0000   1.0000   1.0000
     1.0000   1.0000   1.0000   1.0000   1.0000   1.0000   1.0000   1.0000
     1.0000   1.0000   1.0000   1.0000   1.0000   1.0000   1.0000   1.0000
     1.0000   1.0000   1.0000   1.0000   1.0000   1.0000   1.0000   1.0000
     1.0000   1.0000   1.0000   1.0000   1.0000   1.0000   1.0000   1.0000
     1.0000   1.0000   1.0000   1.0000   1.0000   1.0000   1.0000   1.0000
     1.0000   1.0000   1.0000   1.0000   1.0000   1.0000   1.0000   1.0000
     1.0000   1.0000   1.0000   1.0000   1.0000   1.0000   1.0000   1.0000
     1.0000   1.0000   1.0000   1.0000   1.0000   1.0000   1.0000   1.0000
     1.0000   1.0000   1.0000   1.0000   1.0000   1.0000   1.0000   1.0000
     1.0000   1.0000   1.0000   1.0000   1.0000   1.0000   1.0000   1.0000
     1.0000   1.0000   1.0000   1.0000   1.0000   1.0000   1.0000   1.0000
     1.0000   1.0000   1.0000   1.0000   1.0000   1.0000   1.0000   1.0000
     1.0000   1.0000   1.0000   1.0000   1.0000   1.0000   1.0000   1.0000
     1.0000   1.0000   1.0000   1.0000   1.0000   1.0000   1.0000   1.0000
     1.0000   1.0000   1.0000   1.0000   1.0000   1.0000   1.0000   1.0000
     1.0000   1.0000   1.0000   1.0000   1.0000   1.0000   1.0000   1.0000
     1.0000   1.0000   1.0000   1.0000   1.0000   1.0000   1.0000   1.0000
     1.0000   1.0000   1.0000   1.0000   1.0000   1.0000   1.0000   1.0000
     1.0000   1.0000   1.0000   1.0000   1.0000   1.0000   1.0000   1.0000
     1.0000   1.0000   1.0000   1.0000   1.0000   1.0000   1.0000   1.0000
     1.0000   1.0000   1.0000   1.0000   1.0000   1.0000   1.0000   1.0000
     1.0000   1.0000   1.0000   1.0000   1.0000   1.0000   1.0000   1.0000
     1.0000   1.0000   1.0000   1.0000   1.0000   1.0000   1.0000   1.0000
     1.0000   1.0000   1.0000   1.0000   1.0000   1.0000   1.0000   1.0000
     1.0000   1.0000   1.0000   1.0000   1.0000   1.0000   1.0000   1.0000
     1.0000   1.0000   1.0000   1.0000   1.0000   1.0000   1.0000   1.0000
     1.0000   1.0000   1.0000   1.0000   1.0000   1.0000   1.0000   1.0000
     1.0000   1.0000   1.0000   1.0000   1.0000   1.0000   1.0000   1.0000
     1.0000   1.0000   1.0000   1.0000   1.0000   1.0000   1.0000   1.0000
     1.0000   1.0000   1.0000   1.0000   1.0000   1.0000   1.0000   1.0000
     1.0000   1.0000   1.0000   1.0000   1.0000   1.0000   1.0000   1.0000
     1.0000   1.0000   1.0000   1.0000   1.0000   1.0000   1.0000   1.0000
     1.0000   1.0000   1.0000   1.0001   1.0001   1.0001   1.0001   1.0002
     1.0002   1.0004   1.0005   1.0006   1.0008   1.0010   1.0012   1.0017
     1.0019   1.0023   1.0048   1.0054   1.0056   1.0076   1.0100   1.0121
     1.0154   1.0157   1.0199   1.0219   1.0267   1.0338   1.0409   1.0691
     1.0754   1.0818   1.0815   1.0812   1.0800   1.0794   1.0786   1.0759
     1.0335   1.0055   0.9809   0.9801   0.9147   0.9136   0.8901   0.8780
     0.7839   0.7758   0.5444   0.4972   0.4412   0.4114   0.1135   0.0966
     0.0194   0.0179   0.0011   0.0011   0.0001   0.0000   0.0000   0.0000
     0.0000   0.0000   0.0000   0.0000   0.0000   0.0000   0.0000   0.0000
     0.0000   0.0000   0.0000   0.0000   0.0000   0.0000   0.0000   0.0000
     0.0000   0.0000   0.0000   0.0000   0.0000   0.0000   0.0000   0.0000
     0.0000   0.0000   0.0000   0.0000   0.0000   0.0000   0.0000   0.0000
     0.0000   0.0000   0.0000   0.0000   0.0000   0.0000   0.0000   0.0000
     0.0000   0.0000   0.0000   0.0000   0.0000   0.0000   0.0000   0.0000
     0.0000   0.0000   0.0000   0.0000   0.0000   0.0000   0.0000   0.0000
     0.0000   0.0000   0.0000   0.0000   0.0000   0.0000   0.0000   0.0000
     0.0000   0.0000   0.0000   0.0000   0.0000   0.0000   0.0000   0.0000
     0.0000   0.0000   0.0000   0.0000   0.0000   0.0000   0.0000   0.0000
     0.0000   0.0000   0.0000   0.0000   0.0000   0.0000   0.0000   0.0000
     0.0000   0.0000   0.0000   0.0000   0.0000   0.0000   0.0000   0.0000
     0.0000   0.0000   0.0000   0.0000   0.0000   0.0000   0.0000   0.0000
     0.0000   0.0000   0.0000   0.0000   0.0000   0.0000   0.0000   0.0000
     0.0000   0.0000

          k =-0.5000-0.2887 0.0000 (319994 PWs)   bands (ev):

   -59.6526 -59.6483 -59.6471 -59.6125 -59.6113 -59.6107 -59.5935 -59.5912
   -59.5898 -59.5873 -59.5866 -59.5858 -59.5797 -59.5794 -59.5786 -59.5689
   -35.7909 -35.7906 -35.7856 -35.7711 -35.7629 -35.7549 -35.7535 -35.7461
   -35.7346 -35.7299 -35.7289 -35.7221 -35.7039 -35.6975 -35.6839 -35.6785
   -35.6778 -35.6760 -35.6677 -35.6644 -35.6631 -35.6551 -35.6486 -35.6451
   -35.6424 -35.6407 -35.6388 -35.6353 -35.6343 -35.6311 -35.6280 -35.6259
   -35.6256 -35.6185 -35.6174 -35.6160 -35.6153 -35.6109 -35.6086 -35.6068
   -35.6051 -35.6022 -35.6011 -35.6002 -35.5988 -35.5985 -35.5919 -35.5895
   -23.6988 -23.6661 -23.4445 -23.4379 -23.0422 -23.0381 -23.0242 -23.0166
   -22.9291 -22.6559 -22.6380 -22.6091 -22.4574 -22.4536 -22.4465 -22.4360
   -22.4019 -22.3973 -22.1336 -22.1280 -22.1106 -22.1068 -22.0177 -22.0069
   -21.9935 -21.9842 -21.9610 -21.9495 -21.9353 -21.9214 -21.8578 -21.8424
   -21.8398 -21.8367 -21.8069 -21.7354 -21.7287 -21.7044 -21.7009 -21.6852
   -21.6800 -21.6581 -21.6529 -21.6171 -21.5994 -21.5281 -21.5160 -21.5116
   -21.4981 -21.4589 -21.4526 -21.4416 -21.4288 -21.4156 -21.4116 -21.4034
   -21.3914 -21.3814 -21.3771 -21.3578 -21.3512 -21.3314 -21.3146 -21.2809
   -21.1721 -21.1698 -21.1592 -21.1566 -21.0299 -21.0291 -21.0257 -21.0231
   -20.9990 -20.9967 -20.9800 -20.9577 -20.9570 -20.9135 -20.9114 -20.8886
   -20.8865 -17.7108 -17.6880 -17.4370 -17.4269 -17.0359 -17.0284 -17.0207
   -17.0157 -16.9126 -16.8538 -16.7854 -16.7640 -16.7358 -16.7060 -16.6907
   -16.6590 -16.6572 -16.6526 -16.5574 -16.5549 -16.4889 -16.4872 -16.4831
   -16.4795 -16.4427 -16.4072 -16.3586 -16.3466 -16.3386 -16.3210 -16.2711
   -16.2698 -11.1175 -11.0165 -10.9972 -10.8980 -10.8896 -10.8817 -10.8673
   -10.8540 -10.8344 -10.8011 -10.7507 -10.7421 -10.6808 -10.6697 -10.6607
   -10.6414 -10.6342 -10.6275 -10.4656 -10.4639 -10.3742 -10.3630 -10.3456
   -10.3368 -10.3262 -10.3114 -10.2965 -10.2896 -10.1958 -10.1870 -10.1724
   -10.0934 -10.0803 -10.0322 -10.0157  -9.8883  -9.7765  -9.6549  -9.6478
    -9.6356  -9.6275  -9.5791  -9.5747  -9.4630  -9.4489  -9.3160  -9.2948
    -9.2826  -9.2698  -9.2566  -9.2523  -9.1531  -9.1513  -9.1382  -9.1282
    -9.1205  -9.1103  -9.1021  -9.0816  -9.0438  -9.0244  -9.0166  -8.9978
    -8.9854  -8.9408  -8.9337  -8.9083  -8.9029  -8.9011  -8.8719  -8.8186
    -8.7969  -8.7920  -8.7593  -8.7505  -8.7171  -8.7072  -8.6918  -8.6807
    -8.6320  -8.6252  -8.6219  -8.6172  -8.6172  -8.6100  -8.5783  -8.5414
    -8.5357  -8.5103  -8.5063  -8.4987  -8.4973  -8.4417  -8.4261  -8.3998
    -8.3889  -8.3777  -8.3468  -8.3400  -8.2843  -8.2716  -8.2612  -8.2423
    -8.1997  -8.1967  -8.1782  -8.1186  -8.1087  -8.0624  -8.0568  -8.0525
    -8.0404  -8.0294  -7.9959  -7.9773  -7.9654  -7.9545  -7.9332  -7.9279
    -7.9222  -7.8762  -7.8576  -7.8494  -7.8342  -7.8199  -7.8097  -7.7810
    -7.7729  -7.7646  -7.7272  -7.7130  -7.7065  -7.6820  -7.6716  -7.6475
    -7.6381  -7.6280  -7.6136  -7.6076  -7.5982  -7.5883  -7.5784  -7.5640
    -7.5595  -7.5559  -7.5327  -7.5266  -7.4857  -7.4466  -7.4267  -7.4171
    -7.4128  -7.3873  -7.3131  -7.3011  -7.2971  -7.2887  -7.2682  -7.2631
    -7.2533  -7.2400  -7.2389  -7.2131  -7.1687  -7.1659  -7.1413  -7.1003
    -7.0890  -7.0838  -7.0769  -7.0698  -7.0553  -7.0043  -7.0020  -6.9783
    -6.9431  -6.9404  -6.9352  -6.9310  -6.9224  -6.9140  -6.9084  -6.8907
    -6.8888  -6.8562  -6.8549  -6.8413  -6.8281  -6.8196  -6.8028  -6.7942
    -6.7884  -6.7810  -6.7772  -6.7686  -6.7607  -6.7546  -6.7453  -6.7418
    -6.7363  -6.7292  -6.7079  -6.7007  -6.6973  -6.6857  -6.6758  -6.6483
    -6.6355  -6.6075  -6.5631  -6.5553  -6.5192  -6.5021  -6.4796  -6.4735
    -6.4298  -6.4139  -6.4074  -6.4012  -6.3955  -6.3912  -6.3871  -6.3817
    -6.3604  -6.3359  -6.3235  -6.2992  -6.2865  -6.2410  -6.2360  -6.2183
    -6.2124  -6.1958  -6.1880  -6.1801  -6.1734  -6.1685  -6.1646  -6.1585
    -6.1419  -6.1372  -6.1300  -6.1283  -6.1119  -6.1080  -6.0922  -6.0792
    -6.0647  -6.0575  -6.0514  -6.0440  -6.0393  -6.0334  -6.0302  -6.0251
    -6.0210  -6.0143  -6.0053  -6.0033  -5.9542  -5.9470  -5.9345  -5.9241
    -5.8880  -5.8858  -5.8596  -5.8315  -5.8290  -5.8146  -5.8055  -5.7863
    -5.7845  -5.7780  -5.7713  -5.7640  -5.7541  -5.7287  -5.7250  -5.7090
    -5.6912  -5.6632  -5.6496  -5.6421  -5.6217  -5.6117  -5.6070  -5.5918
    -5.5710  -5.5427  -5.5296  -5.5133  -5.4999  -5.4850  -5.4585  -5.4357
    -5.4187  -5.4144  -5.3993  -5.3799  -5.3708  -5.3562  -5.3503  -5.3347
    -5.3167  -5.2846  -5.2762  -5.2714  -5.2522  -5.2383  -5.2293  -5.2066
    -5.1987  -5.1880  -5.1387  -5.1295  -5.1269  -5.1040  -5.0823  -5.0667
    -5.0461  -5.0446  -5.0224  -5.0134  -4.9932  -4.9672  -4.9448  -4.8605
    -4.8385  -4.8061  -4.7615  -4.7596  -4.7537  -4.7512  -4.7481  -4.7397
    -4.6780  -4.6544  -4.6367  -4.6362  -4.5994  -4.5989  -4.5872  -4.5814
    -4.5418  -4.5386  -4.4533  -4.4374  -4.4133  -4.4032  -4.2439  -4.2280
    -4.0956  -4.0901  -3.9189  -3.9174  -3.8011  -3.7662  -3.7534  -3.7530
    -3.6050  -3.6038  -3.6005  -3.5969  -3.5891  -2.6626  -2.6556  -2.2627
    -2.2295  -2.2195  -2.2064  -2.1972  -2.1857  -2.1809  -2.1469  -2.1453
    -2.1370  -2.0769  -2.0636  -1.9890  -1.9809  -1.9435  -1.9258  -1.9191
    -1.9156  -1.9001  -1.8930  -1.8757  -1.8532  -1.8421  -1.8289  -1.8062
    -1.7914  -1.7801  -1.7636  -1.7470  -1.7144  -1.6335  -1.6255  -1.5527
    -1.5494  -1.5405  -1.5354  -1.3924  -1.3568  -1.2372  -1.2329  -1.1927
    -1.1919  -1.1543  -1.0082  -0.9990  -0.9931  -0.9539  -0.9256  -0.8886
    -0.8709  -0.8301  -0.8287  -0.7763  -0.7760  -0.4283  -0.4108  -0.3987
    -0.3935  -0.3840  -0.3613  -0.3443  -0.3350  -0.3295  -0.3228  -0.3064
    -0.3045  -0.3032  -0.3018  -0.3010  -0.2452  -0.2363  -0.1323  -0.1312
     0.1242   0.1244   0.4760   0.4767   0.4796   0.4806   0.6156   0.6358
     0.6768   0.9021   0.9752   1.0049   1.0159   1.0172   1.0196   1.0218
     1.0228   1.0379   1.0772   1.1110   1.1355   1.2147   1.2553   1.3256
     1.3271   1.4232   1.4490   1.4910   1.5377   1.5584   1.5613   1.5662
     1.6244   1.6716

     occupation numbers 
     1.0000   1.0000   1.0000   1.0000   1.0000   1.0000   1.0000   1.0000
     1.0000   1.0000   1.0000   1.0000   1.0000   1.0000   1.0000   1.0000
     1.0000   1.0000   1.0000   1.0000   1.0000   1.0000   1.0000   1.0000
     1.0000   1.0000   1.0000   1.0000   1.0000   1.0000   1.0000   1.0000
     1.0000   1.0000   1.0000   1.0000   1.0000   1.0000   1.0000   1.0000
     1.0000   1.0000   1.0000   1.0000   1.0000   1.0000   1.0000   1.0000
     1.0000   1.0000   1.0000   1.0000   1.0000   1.0000   1.0000   1.0000
     1.0000   1.0000   1.0000   1.0000   1.0000   1.0000   1.0000   1.0000
     1.0000   1.0000   1.0000   1.0000   1.0000   1.0000   1.0000   1.0000
     1.0000   1.0000   1.0000   1.0000   1.0000   1.0000   1.0000   1.0000
     1.0000   1.0000   1.0000   1.0000   1.0000   1.0000   1.0000   1.0000
     1.0000   1.0000   1.0000   1.0000   1.0000   1.0000   1.0000   1.0000
     1.0000   1.0000   1.0000   1.0000   1.0000   1.0000   1.0000   1.0000
     1.0000   1.0000   1.0000   1.0000   1.0000   1.0000   1.0000   1.0000
     1.0000   1.0000   1.0000   1.0000   1.0000   1.0000   1.0000   1.0000
     1.0000   1.0000   1.0000   1.0000   1.0000   1.0000   1.0000   1.0000
     1.0000   1.0000   1.0000   1.0000   1.0000   1.0000   1.0000   1.0000
     1.0000   1.0000   1.0000   1.0000   1.0000   1.0000   1.0000   1.0000
     1.0000   1.0000   1.0000   1.0000   1.0000   1.0000   1.0000   1.0000
     1.0000   1.0000   1.0000   1.0000   1.0000   1.0000   1.0000   1.0000
     1.0000   1.0000   1.0000   1.0000   1.0000   1.0000   1.0000   1.0000
     1.0000   1.0000   1.0000   1.0000   1.0000   1.0000   1.0000   1.0000
     1.0000   1.0000   1.0000   1.0000   1.0000   1.0000   1.0000   1.0000
     1.0000   1.0000   1.0000   1.0000   1.0000   1.0000   1.0000   1.0000
     1.0000   1.0000   1.0000   1.0000   1.0000   1.0000   1.0000   1.0000
     1.0000   1.0000   1.0000   1.0000   1.0000   1.0000   1.0000   1.0000
     1.0000   1.0000   1.0000   1.0000   1.0000   1.0000   1.0000   1.0000
     1.0000   1.0000   1.0000   1.0000   1.0000   1.0000   1.0000   1.0000
     1.0000   1.0000   1.0000   1.0000   1.0000   1.0000   1.0000   1.0000
     1.0000   1.0000   1.0000   1.0000   1.0000   1.0000   1.0000   1.0000
     1.0000   1.0000   1.0000   1.0000   1.0000   1.0000   1.0000   1.0000
     1.0000   1.0000   1.0000   1.0000   1.0000   1.0000   1.0000   1.0000
     1.0000   1.0000   1.0000   1.0000   1.0000   1.0000   1.0000   1.0000
     1.0000   1.0000   1.0000   1.0000   1.0000   1.0000   1.0000   1.0000
     1.0000   1.0000   1.0000   1.0000   1.0000   1.0000   1.0000   1.0000
     1.0000   1.0000   1.0000   1.0000   1.0000   1.0000   1.0000   1.0000
     1.0000   1.0000   1.0000   1.0000   1.0000   1.0000   1.0000   1.0000
     1.0000   1.0000   1.0000   1.0000   1.0000   1.0000   1.0000   1.0000
     1.0000   1.0000   1.0000   1.0000   1.0000   1.0000   1.0000   1.0000
     1.0000   1.0000   1.0000   1.0000   1.0000   1.0000   1.0000   1.0000
     1.0000   1.0000   1.0000   1.0000   1.0000   1.0000   1.0000   1.0000
     1.0000   1.0000   1.0000   1.0000   1.0000   1.0000   1.0000   1.0000
     1.0000   1.0000   1.0000   1.0000   1.0000   1.0000   1.0000   1.0000
     1.0000   1.0000   1.0000   1.0000   1.0000   1.0000   1.0000   1.0000
     1.0000   1.0000   1.0000   1.0000   1.0000   1.0000   1.0000   1.0000
     1.0000   1.0000   1.0000   1.0000   1.0000   1.0000   1.0000   1.0000
     1.0000   1.0000   1.0000   1.0000   1.0000   1.0000   1.0000   1.0000
     1.0000   1.0000   1.0000   1.0000   1.0000   1.0000   1.0000   1.0000
     1.0000   1.0000   1.0000   1.0000   1.0000   1.0000   1.0000   1.0000
     1.0000   1.0000   1.0000   1.0000   1.0000   1.0000   1.0000   1.0000
     1.0000   1.0000   1.0000   1.0000   1.0000   1.0000   1.0000   1.0000
     1.0000   1.0000   1.0000   1.0000   1.0000   1.0000   1.0000   1.0000
     1.0000   1.0000   1.0000   1.0000   1.0000   1.0000   1.0000   1.0000
     1.0000   1.0000   1.0000   1.0000   1.0000   1.0000   1.0000   1.0000
     1.0000   1.0000   1.0000   1.0000   1.0000   1.0000   1.0000   1.0000
     1.0000   1.0000   1.0000   1.0000   1.0000   1.0000   1.0000   1.0000
     1.0000   1.0000   1.0000   1.0000   1.0000   1.0000   1.0000   1.0000
     1.0000   1.0000   1.0000   1.0000   1.0000   1.0000   1.0000   1.0000
     1.0000   1.0000   1.0000   1.0000   1.0000   1.0000   1.0000   1.0000
     1.0000   1.0000   1.0000   1.0001   1.0001   1.0001   1.0001   1.0002
     1.0002   1.0004   1.0005   1.0006   1.0008   1.0010   1.0012   1.0017
     1.0019   1.0023   1.0048   1.0054   1.0056   1.0076   1.0101   1.0121
     1.0154   1.0157   1.0199   1.0219   1.0267   1.0339   1.0408   1.0691
     1.0754   1.0818   1.0815   1.0812   1.0800   1.0794   1.0786   1.0759
     1.0340   1.0063   0.9809   0.9801   0.9149   0.9139   0.8898   0.8774
     0.7839   0.7758   0.5445   0.5009   0.4369   0.4109   0.1134   0.0963
     0.0194   0.0179   0.0011   0.0011   0.0001   0.0000   0.0000   0.0000
     0.0000   0.0000   0.0000   0.0000   0.0000   0.0000   0.0000   0.0000
     0.0000   0.0000   0.0000   0.0000   0.0000   0.0000   0.0000   0.0000
     0.0000   0.0000   0.0000   0.0000   0.0000   0.0000   0.0000   0.0000
     0.0000   0.0000   0.0000   0.0000   0.0000   0.0000   0.0000   0.0000
     0.0000   0.0000   0.0000   0.0000   0.0000   0.0000   0.0000   0.0000
     0.0000   0.0000   0.0000   0.0000   0.0000   0.0000   0.0000   0.0000
     0.0000   0.0000   0.0000   0.0000   0.0000   0.0000   0.0000   0.0000
     0.0000   0.0000   0.0000   0.0000   0.0000   0.0000   0.0000   0.0000
     0.0000   0.0000   0.0000   0.0000   0.0000   0.0000   0.0000   0.0000
     0.0000   0.0000   0.0000   0.0000   0.0000   0.0000   0.0000   0.0000
     0.0000   0.0000   0.0000   0.0000   0.0000   0.0000   0.0000   0.0000
     0.0000   0.0000   0.0000   0.0000   0.0000   0.0000   0.0000   0.0000
     0.0000   0.0000   0.0000   0.0000   0.0000   0.0000   0.0000   0.0000
     0.0000   0.0000   0.0000   0.0000   0.0000   0.0000   0.0000   0.0000
     0.0000   0.0000

          k =-0.5000-0.8660 0.0000 (319994 PWs)   bands (ev):

   -59.6526 -59.6483 -59.6471 -59.6125 -59.6114 -59.6107 -59.5935 -59.5910
   -59.5902 -59.5873 -59.5863 -59.5861 -59.5797 -59.5793 -59.5786 -59.5689
   -35.7909 -35.7905 -35.7858 -35.7710 -35.7629 -35.7550 -35.7535 -35.7460
   -35.7346 -35.7300 -35.7290 -35.7220 -35.7039 -35.6975 -35.6839 -35.6785
   -35.6777 -35.6761 -35.6677 -35.6643 -35.6632 -35.6551 -35.6486 -35.6450
   -35.6426 -35.6405 -35.6386 -35.6354 -35.6342 -35.6311 -35.6282 -35.6258
   -35.6256 -35.6185 -35.6175 -35.6162 -35.6152 -35.6108 -35.6085 -35.6068
   -35.6052 -35.6023 -35.6009 -35.6002 -35.5990 -35.5985 -35.5919 -35.5895
   -23.6988 -23.6661 -23.4445 -23.4379 -23.0422 -23.0381 -23.0242 -23.0166
   -22.9291 -22.6559 -22.6380 -22.6091 -22.4574 -22.4536 -22.4465 -22.4359
   -22.4018 -22.3973 -22.1336 -22.1280 -22.1105 -22.1069 -22.0177 -22.0068
   -21.9935 -21.9842 -21.9610 -21.9495 -21.9353 -21.9213 -21.8578 -21.8423
   -21.8399 -21.8367 -21.8069 -21.7355 -21.7288 -21.7044 -21.7008 -21.6853
   -21.6800 -21.6580 -21.6529 -21.6172 -21.5994 -21.5281 -21.5160 -21.5116
   -21.4981 -21.4590 -21.4526 -21.4415 -21.4288 -21.4156 -21.4116 -21.4034
   -21.3914 -21.3813 -21.3770 -21.3578 -21.3512 -21.3314 -21.3147 -21.2809
   -21.1721 -21.1698 -21.1592 -21.1566 -21.0299 -21.0291 -21.0257 -21.0232
   -20.9990 -20.9967 -20.9800 -20.9577 -20.9570 -20.9135 -20.9114 -20.8886
   -20.8865 -17.7108 -17.6880 -17.4370 -17.4268 -17.0363 -17.0282 -17.0204
   -17.0160 -16.9125 -16.8539 -16.7854 -16.7639 -16.7357 -16.7060 -16.6907
   -16.6591 -16.6570 -16.6528 -16.5576 -16.5547 -16.4887 -16.4872 -16.4833
   -16.4795 -16.4426 -16.4073 -16.3586 -16.3466 -16.3386 -16.3210 -16.2711
   -16.2698 -11.1175 -11.0165 -10.9972 -10.8980 -10.8896 -10.8817 -10.8674
   -10.8539 -10.8344 -10.8011 -10.7507 -10.7421 -10.6808 -10.6696 -10.6607
   -10.6414 -10.6342 -10.6275 -10.4656 -10.4639 -10.3742 -10.3631 -10.3455
   -10.3368 -10.3261 -10.3114 -10.2965 -10.2896 -10.1958 -10.1870 -10.1724
   -10.0934 -10.0803 -10.0322 -10.0158  -9.8883  -9.7765  -9.6550  -9.6479
    -9.6356  -9.6275  -9.5791  -9.5747  -9.4630  -9.4489  -9.3161  -9.2947
    -9.2827  -9.2697  -9.2565  -9.2524  -9.1531  -9.1513  -9.1382  -9.1283
    -9.1205  -9.1103  -9.1020  -9.0817  -9.0439  -9.0244  -9.0166  -8.9976
    -8.9855  -8.9409  -8.9336  -8.9085  -8.9028  -8.9011  -8.8719  -8.8186
    -8.7969  -8.7920  -8.7593  -8.7506  -8.7171  -8.7071  -8.6918  -8.6808
    -8.6321  -8.6250  -8.6219  -8.6173  -8.6172  -8.6101  -8.5783  -8.5416
    -8.5355  -8.5103  -8.5063  -8.4987  -8.4973  -8.4417  -8.4261  -8.3999
    -8.3888  -8.3778  -8.3469  -8.3399  -8.2843  -8.2714  -8.2611  -8.2423
    -8.1997  -8.1968  -8.1782  -8.1186  -8.1087  -8.0623  -8.0567  -8.0524
    -8.0404  -8.0294  -7.9959  -7.9772  -7.9654  -7.9547  -7.9332  -7.9279
    -7.9221  -7.8762  -7.8576  -7.8496  -7.8342  -7.8197  -7.8096  -7.7809
    -7.7730  -7.7646  -7.7272  -7.7133  -7.7063  -7.6821  -7.6715  -7.6478
    -7.6378  -7.6279  -7.6136  -7.6075  -7.5984  -7.5884  -7.5786  -7.5638
    -7.5594  -7.5558  -7.5328  -7.5268  -7.4857  -7.4466  -7.4267  -7.4171
    -7.4128  -7.3873  -7.3131  -7.3010  -7.2971  -7.2887  -7.2682  -7.2632
    -7.2533  -7.2400  -7.2389  -7.2131  -7.1687  -7.1659  -7.1413  -7.1003
    -7.0891  -7.0839  -7.0770  -7.0699  -7.0552  -7.0042  -7.0020  -6.9783
    -6.9432  -6.9402  -6.9351  -6.9309  -6.9223  -6.9139  -6.9083  -6.8908
    -6.8891  -6.8564  -6.8549  -6.8412  -6.8281  -6.8197  -6.8029  -6.7941
    -6.7886  -6.7812  -6.7771  -6.7688  -6.7606  -6.7544  -6.7452  -6.7419
    -6.7364  -6.7291  -6.7079  -6.7007  -6.6972  -6.6858  -6.6757  -6.6482
    -6.6355  -6.6075  -6.5631  -6.5553  -6.5192  -6.5022  -6.4795  -6.4734
    -6.4298  -6.4139  -6.4077  -6.4012  -6.3955  -6.3913  -6.3870  -6.3816
    -6.3604  -6.3358  -6.3235  -6.2992  -6.2865  -6.2409  -6.2359  -6.2182
    -6.2124  -6.1958  -6.1881  -6.1799  -6.1734  -6.1684  -6.1646  -6.1585
    -6.1420  -6.1373  -6.1298  -6.1283  -6.1120  -6.1079  -6.0920  -6.0793
    -6.0648  -6.0576  -6.0513  -6.0440  -6.0391  -6.0335  -6.0303  -6.0248
    -6.0209  -6.0147  -6.0051  -6.0034  -5.9542  -5.9471  -5.9345  -5.9242
    -5.8880  -5.8858  -5.8593  -5.8315  -5.8290  -5.8148  -5.8055  -5.7864
    -5.7845  -5.7781  -5.7714  -5.7640  -5.7542  -5.7287  -5.7250  -5.7091
    -5.6912  -5.6633  -5.6496  -5.6422  -5.6216  -5.6117  -5.6070  -5.5918
    -5.5706  -5.5427  -5.5297  -5.5134  -5.4999  -5.4851  -5.4587  -5.4356
    -5.4186  -5.4143  -5.3991  -5.3799  -5.3707  -5.3563  -5.3503  -5.3349
    -5.3166  -5.2846  -5.2761  -5.2713  -5.2522  -5.2382  -5.2296  -5.2066
    -5.1989  -5.1879  -5.1387  -5.1295  -5.1269  -5.1040  -5.0824  -5.0667
    -5.0461  -5.0444  -5.0225  -5.0135  -4.9932  -4.9673  -4.9447  -4.8606
    -4.8384  -4.8061  -4.7615  -4.7596  -4.7537  -4.7512  -4.7481  -4.7396
    -4.6779  -4.6545  -4.6367  -4.6362  -4.5998  -4.5985  -4.5873  -4.5813
    -4.5418  -4.5386  -4.4532  -4.4373  -4.4135  -4.4033  -4.2439  -4.2280
    -4.0961  -4.0896  -3.9189  -3.9174  -3.8011  -3.7662  -3.7534  -3.7530
    -3.6050  -3.6038  -3.6005  -3.5969  -3.5891  -2.6626  -2.6556  -2.2624
    -2.2297  -2.2197  -2.2066  -2.1973  -2.1859  -2.1804  -2.1476  -2.1446
    -2.1370  -2.0771  -2.0634  -1.9890  -1.9808  -1.9436  -1.9259  -1.9191
    -1.9155  -1.9004  -1.8928  -1.8755  -1.8529  -1.8428  -1.8290  -1.8059
    -1.7915  -1.7802  -1.7634  -1.7471  -1.7144  -1.6334  -1.6256  -1.5524
    -1.5499  -1.5408  -1.5349  -1.3924  -1.3569  -1.2371  -1.2330  -1.1927
    -1.1919  -1.1544  -1.0079  -0.9993  -0.9929  -0.9542  -0.9257  -0.8886
    -0.8706  -0.8302  -0.8287  -0.7763  -0.7760  -0.4285  -0.4108  -0.3989
    -0.3934  -0.3837  -0.3614  -0.3438  -0.3352  -0.3299  -0.3230  -0.3064
    -0.3044  -0.3032  -0.3017  -0.3010  -0.2450  -0.2363  -0.1323  -0.1313
     0.1242   0.1244   0.4760   0.4767   0.4796   0.4806   0.6155   0.6358
     0.6768   0.9023   0.9751   1.0049   1.0159   1.0172   1.0196   1.0218
     1.0228   1.0379   1.0772   1.1110   1.1354   1.2148   1.2554   1.3256
     1.3271   1.4231   1.4489   1.4909   1.5379   1.5582   1.5607   1.5658
     1.5662   1.6255

     occupation numbers 
     1.0000   1.0000   1.0000   1.0000   1.0000   1.0000   1.0000   1.0000
     1.0000   1.0000   1.0000   1.0000   1.0000   1.0000   1.0000   1.0000
     1.0000   1.0000   1.0000   1.0000   1.0000   1.0000   1.0000   1.0000
     1.0000   1.0000   1.0000   1.0000   1.0000   1.0000   1.0000   1.0000
     1.0000   1.0000   1.0000   1.0000   1.0000   1.0000   1.0000   1.0000
     1.0000   1.0000   1.0000   1.0000   1.0000   1.0000   1.0000   1.0000
     1.0000   1.0000   1.0000   1.0000   1.0000   1.0000   1.0000   1.0000
     1.0000   1.0000   1.0000   1.0000   1.0000   1.0000   1.0000   1.0000
     1.0000   1.0000   1.0000   1.0000   1.0000   1.0000   1.0000   1.0000
     1.0000   1.0000   1.0000   1.0000   1.0000   1.0000   1.0000   1.0000
     1.0000   1.0000   1.0000   1.0000   1.0000   1.0000   1.0000   1.0000
     1.0000   1.0000   1.0000   1.0000   1.0000   1.0000   1.0000   1.0000
     1.0000   1.0000   1.0000   1.0000   1.0000   1.0000   1.0000   1.0000
     1.0000   1.0000   1.0000   1.0000   1.0000   1.0000   1.0000   1.0000
     1.0000   1.0000   1.0000   1.0000   1.0000   1.0000   1.0000   1.0000
     1.0000   1.0000   1.0000   1.0000   1.0000   1.0000   1.0000   1.0000
     1.0000   1.0000   1.0000   1.0000   1.0000   1.0000   1.0000   1.0000
     1.0000   1.0000   1.0000   1.0000   1.0000   1.0000   1.0000   1.0000
     1.0000   1.0000   1.0000   1.0000   1.0000   1.0000   1.0000   1.0000
     1.0000   1.0000   1.0000   1.0000   1.0000   1.0000   1.0000   1.0000
     1.0000   1.0000   1.0000   1.0000   1.0000   1.0000   1.0000   1.0000
     1.0000   1.0000   1.0000   1.0000   1.0000   1.0000   1.0000   1.0000
     1.0000   1.0000   1.0000   1.0000   1.0000   1.0000   1.0000   1.0000
     1.0000   1.0000   1.0000   1.0000   1.0000   1.0000   1.0000   1.0000
     1.0000   1.0000   1.0000   1.0000   1.0000   1.0000   1.0000   1.0000
     1.0000   1.0000   1.0000   1.0000   1.0000   1.0000   1.0000   1.0000
     1.0000   1.0000   1.0000   1.0000   1.0000   1.0000   1.0000   1.0000
     1.0000   1.0000   1.0000   1.0000   1.0000   1.0000   1.0000   1.0000
     1.0000   1.0000   1.0000   1.0000   1.0000   1.0000   1.0000   1.0000
     1.0000   1.0000   1.0000   1.0000   1.0000   1.0000   1.0000   1.0000
     1.0000   1.0000   1.0000   1.0000   1.0000   1.0000   1.0000   1.0000
     1.0000   1.0000   1.0000   1.0000   1.0000   1.0000   1.0000   1.0000
     1.0000   1.0000   1.0000   1.0000   1.0000   1.0000   1.0000   1.0000
     1.0000   1.0000   1.0000   1.0000   1.0000   1.0000   1.0000   1.0000
     1.0000   1.0000   1.0000   1.0000   1.0000   1.0000   1.0000   1.0000
     1.0000   1.0000   1.0000   1.0000   1.0000   1.0000   1.0000   1.0000
     1.0000   1.0000   1.0000   1.0000   1.0000   1.0000   1.0000   1.0000
     1.0000   1.0000   1.0000   1.0000   1.0000   1.0000   1.0000   1.0000
     1.0000   1.0000   1.0000   1.0000   1.0000   1.0000   1.0000   1.0000
     1.0000   1.0000   1.0000   1.0000   1.0000   1.0000   1.0000   1.0000
     1.0000   1.0000   1.0000   1.0000   1.0000   1.0000   1.0000   1.0000
     1.0000   1.0000   1.0000   1.0000   1.0000   1.0000   1.0000   1.0000
     1.0000   1.0000   1.0000   1.0000   1.0000   1.0000   1.0000   1.0000
     1.0000   1.0000   1.0000   1.0000   1.0000   1.0000   1.0000   1.0000
     1.0000   1.0000   1.0000   1.0000   1.0000   1.0000   1.0000   1.0000
     1.0000   1.0000   1.0000   1.0000   1.0000   1.0000   1.0000   1.0000
     1.0000   1.0000   1.0000   1.0000   1.0000   1.0000   1.0000   1.0000
     1.0000   1.0000   1.0000   1.0000   1.0000   1.0000   1.0000   1.0000
     1.0000   1.0000   1.0000   1.0000   1.0000   1.0000   1.0000   1.0000
     1.0000   1.0000   1.0000   1.0000   1.0000   1.0000   1.0000   1.0000
     1.0000   1.0000   1.0000   1.0000   1.0000   1.0000   1.0000   1.0000
     1.0000   1.0000   1.0000   1.0000   1.0000   1.0000   1.0000   1.0000
     1.0000   1.0000   1.0000   1.0000   1.0000   1.0000   1.0000   1.0000
     1.0000   1.0000   1.0000   1.0000   1.0000   1.0000   1.0000   1.0000
     1.0000   1.0000   1.0000   1.0000   1.0000   1.0000   1.0000   1.0000
     1.0000   1.0000   1.0000   1.0000   1.0000   1.0000   1.0000   1.0000
     1.0000   1.0000   1.0000   1.0000   1.0000   1.0000   1.0000   1.0000
     1.0000   1.0000   1.0000   1.0000   1.0000   1.0000   1.0000   1.0000
     1.0000   1.0000   1.0000   1.0000   1.0000   1.0000   1.0000   1.0000
     1.0000   1.0000   1.0000   1.0001   1.0001   1.0001   1.0001   1.0002
     1.0002   1.0004   1.0005   1.0006   1.0008   1.0010   1.0012   1.0017
     1.0019   1.0023   1.0048   1.0054   1.0056   1.0076   1.0100   1.0121
     1.0154   1.0157   1.0199   1.0219   1.0267   1.0338   1.0408   1.0691
     1.0754   1.0818   1.0815   1.0812   1.0800   1.0794   1.0786   1.0759
     1.0340   1.0063   0.9809   0.9801   0.9156   0.9131   0.8901   0.8771
     0.7839   0.7757   0.5442   0.5006   0.4373   0.4111   0.1134   0.0964
     0.0195   0.0178   0.0011   0.0011   0.0001   0.0000   0.0000   0.0000
     0.0000   0.0000   0.0000   0.0000   0.0000   0.0000   0.0000   0.0000
     0.0000   0.0000   0.0000   0.0000   0.0000   0.0000   0.0000   0.0000
     0.0000   0.0000   0.0000   0.0000   0.0000   0.0000   0.0000   0.0000
     0.0000   0.0000   0.0000   0.0000   0.0000   0.0000   0.0000   0.0000
     0.0000   0.0000   0.0000   0.0000   0.0000   0.0000   0.0000   0.0000
     0.0000   0.0000   0.0000   0.0000   0.0000   0.0000   0.0000   0.0000
     0.0000   0.0000   0.0000   0.0000   0.0000   0.0000   0.0000   0.0000
     0.0000   0.0000   0.0000   0.0000   0.0000   0.0000   0.0000   0.0000
     0.0000   0.0000   0.0000   0.0000   0.0000   0.0000   0.0000   0.0000
     0.0000   0.0000   0.0000   0.0000   0.0000   0.0000   0.0000   0.0000
     0.0000   0.0000   0.0000   0.0000   0.0000   0.0000   0.0000   0.0000
     0.0000   0.0000   0.0000   0.0000   0.0000   0.0000   0.0000   0.0000
     0.0000   0.0000   0.0000   0.0000   0.0000   0.0000   0.0000   0.0000
     0.0000   0.0000   0.0000   0.0000   0.0000   0.0000   0.0000   0.0000
     0.0000   0.0000

 ------ SPIN DOWN ----------


          k = 0.0000 0.0000 0.0000 (320189 PWs)   bands (ev):

   -59.6525 -59.6482 -59.6470 -59.6124 -59.6112 -59.6107 -59.5936 -59.5901
   -59.5897 -59.5886 -59.5861 -59.5856 -59.5795 -59.5792 -59.5786 -59.5688
   -35.7963 -35.7959 -35.7958 -35.7665 -35.7567 -35.7522 -35.7520 -35.7445
   -35.7443 -35.7087 -35.7083 -35.7000 -35.6956 -35.6930 -35.6929 -35.6832
   -35.6828 -35.6807 -35.6784 -35.6712 -35.6667 -35.6664 -35.6638 -35.6628
   -35.6407 -35.6385 -35.6381 -35.6355 -35.6339 -35.6334 -35.6238 -35.6233
   -35.6204 -35.6202 -35.6175 -35.6173 -35.6123 -35.6098 -35.6095 -35.6048
   -35.6046 -35.6009 -35.5999 -35.5997 -35.5994 -35.5922 -35.5878 -35.5878
   -23.8059 -23.3659 -23.3544 -23.3543 -23.3089 -23.3088 -23.2945 -22.7487
   -22.7487 -22.7245 -22.4586 -22.4585 -22.4114 -22.3944 -22.3943 -22.3806
   -22.3748 -22.3426 -22.3425 -22.3395 -22.1665 -22.1665 -22.1583 -22.1539
   -22.1538 -22.1487 -21.8977 -21.8229 -21.8112 -21.8083 -21.8082 -21.7863
   -21.7859 -21.7858 -21.7410 -21.7409 -21.7294 -21.6802 -21.6801 -21.6680
   -21.6576 -21.6576 -21.6346 -21.6295 -21.6294 -21.5351 -21.5349 -21.5236
   -21.5165 -21.5164 -21.4987 -21.4986 -21.4978 -21.4336 -21.4333 -21.4332
   -21.3865 -21.3779 -21.3778 -21.3356 -21.3355 -21.2596 -21.2575 -21.1715
   -21.1715 -21.1645 -21.1645 -21.0766 -21.0752 -21.0752 -21.0741 -21.0740
   -21.0739 -20.9528 -20.9527 -20.9527 -20.9474 -20.9467 -20.9467 -20.8544
   -20.8544 -17.8476 -17.3386 -17.3313 -17.3308 -17.3051 -17.3048 -17.2842
   -16.8391 -16.7894 -16.7568 -16.7103 -16.7102 -16.6750 -16.6747 -16.6587
   -16.6567 -16.6563 -16.6220 -16.6207 -16.6205 -16.5978 -16.5975 -16.5887
   -16.3849 -16.3691 -16.3523 -16.3522 -16.3261 -16.3260 -16.3235 -16.3173
   -16.3172 -11.0876 -11.0526 -11.0496 -11.0496 -11.0236 -11.0236 -11.0174
   -10.7123 -10.7064 -10.7063 -10.6856 -10.6842 -10.6842 -10.5383 -10.5307
   -10.5100 -10.5099 -10.5095 -10.5041 -10.5040 -10.4913 -10.4798 -10.4786
   -10.4785 -10.3059 -10.3059 -10.0926 -10.0926 -10.0799 -10.0799 -10.0691
   -10.0530 -10.0528 -10.0428 -10.0410 -10.0409  -9.6935  -9.6896  -9.6896
    -9.6895  -9.6659  -9.6659  -9.6621  -9.5432  -9.5415  -9.4594  -9.4594
    -9.3039  -9.3039  -9.2957  -9.2620  -9.2584  -9.2484  -9.2484  -9.1738
    -9.1737  -9.1638  -9.1323  -9.1323  -9.0271  -9.0096  -9.0027  -9.0026
    -8.9960  -8.9959  -8.9806  -8.9424  -8.9300  -8.9241  -8.9241  -8.8232
    -8.8232  -8.6758  -8.6689  -8.6687  -8.6374  -8.6373  -8.6190  -8.6188
    -8.6159  -8.6108  -8.6105  -8.6037  -8.5953  -8.5946  -8.5933  -8.4820
    -8.3769  -8.3722  -8.3720  -8.3483  -8.3482  -8.3396  -8.3197  -8.3173
    -8.3172  -8.2729  -8.2727  -8.2715  -8.2636  -8.2604  -8.2603  -8.2310
    -8.2294  -8.2291  -8.1429  -8.1287  -8.1287  -8.1284  -8.0716  -8.0716
    -8.0635  -8.0535  -8.0534  -8.0466  -8.0035  -7.9955  -7.9947  -7.9946
    -7.9679  -7.9678  -7.9060  -7.8581  -7.8579  -7.8485  -7.8330  -7.8329
    -7.8307  -7.8041  -7.8040  -7.7954  -7.7780  -7.7687  -7.7685  -7.7347
    -7.7085  -7.7084  -7.6462  -7.6244  -7.6241  -7.6241  -7.6118  -7.6117
    -7.4401  -7.4239  -7.4237  -7.4125  -7.4124  -7.3969  -7.3410  -7.3387
    -7.3386  -7.3156  -7.3156  -7.3118  -7.2115  -7.2115  -7.1994  -7.1993
    -7.1973  -7.1828  -7.1632  -7.1630  -7.1233  -7.0863  -7.0750  -7.0749
    -7.0604  -7.0543  -7.0517  -7.0514  -7.0387  -7.0335  -7.0332  -6.9401
    -6.9400  -6.9290  -6.9174  -6.9173  -6.9021  -6.8881  -6.8813  -6.8812
    -6.8585  -6.8583  -6.8327  -6.8325  -6.8271  -6.8247  -6.8167  -6.8166
    -6.8077  -6.8071  -6.7932  -6.7897  -6.7892  -6.7886  -6.7740  -6.7730
    -6.7709  -6.7632  -6.7577  -6.7577  -6.6523  -6.6523  -6.6431  -6.6239
    -6.6238  -6.6125  -6.5909  -6.5909  -6.5496  -6.5496  -6.5452  -6.5242
    -6.5241  -6.5079  -6.5078  -6.5027  -6.4632  -6.4631  -6.4494  -6.4492
    -6.4364  -6.4282  -6.3793  -6.3609  -6.3609  -6.3479  -6.3478  -6.3340
    -6.3270  -6.3179  -6.3175  -6.2997  -6.2995  -6.2930  -6.1719  -6.1719
    -6.1278  -6.1022  -6.1021  -6.0961  -6.0724  -6.0723  -6.0710  -6.0584
    -6.0547  -6.0545  -6.0401  -6.0401  -6.0256  -6.0048  -6.0047  -5.9906
    -5.9906  -5.9595  -5.9429  -5.9419  -5.9415  -5.9209  -5.9207  -5.9128
    -5.9014  -5.9007  -5.8982  -5.8850  -5.8815  -5.8814  -5.8603  -5.7189
    -5.7179  -5.7177  -5.7039  -5.7037  -5.6762  -5.6498  -5.6382  -5.6381
    -5.6209  -5.6013  -5.5835  -5.5833  -5.5255  -5.5253  -5.5111  -5.5109
    -5.4949  -5.4947  -5.4590  -5.4525  -5.4521  -5.4237  -5.4198  -5.4198
    -5.3878  -5.3812  -5.3809  -5.3717  -5.3492  -5.3491  -5.3403  -5.3164
    -5.3161  -5.3078  -5.3075  -5.2921  -5.2804  -5.2427  -5.2422  -5.1828
    -5.1747  -5.1746  -5.1597  -5.1596  -5.1566  -5.1313  -5.1312  -5.1184
    -5.0759  -5.0650  -5.0409  -5.0408  -4.9969  -4.9787  -4.9783  -4.9653
    -4.9466  -4.9464  -4.7336  -4.7336  -4.7294  -4.7278  -4.7278  -4.7239
    -4.7205  -4.7205  -4.5410  -4.5409  -4.5374  -4.4737  -4.4736  -4.4377
    -4.4193  -4.4193  -4.4147  -4.4111  -4.4110  -4.3948  -4.3945  -4.3901
    -4.3784  -4.3734  -4.3727  -4.0287  -3.7047  -3.7043  -3.7043  -3.6961
    -3.6961  -3.6954  -3.5572  -3.5548  -3.5548  -2.2760  -2.2753  -2.2749
    -2.2448  -2.2442  -2.2403  -2.2040  -2.2039  -2.1828  -2.0345  -2.0344
    -2.0205  -2.0112  -2.0108  -1.9687  -1.9453  -1.9433  -1.9343  -1.9332
    -1.9183  -1.9182  -1.8446  -1.8443  -1.8430  -1.8004  -1.7943  -1.7154
    -1.7149  -1.6834  -1.6800  -1.6796  -1.6679  -1.6674  -1.6455  -1.6437
    -1.6434  -1.6232  -1.6229  -1.4371  -1.4370  -1.4179  -1.3269  -1.3194
    -1.1814  -1.1805  -1.1762  -1.1753  -0.8056  -0.8050  -0.8043  -0.7947
    -0.7885  -0.7883  -0.7644  -0.7644  -0.7612  -0.6108  -0.6096  -0.6096
    -0.6084  -0.6084  -0.6081  -0.3274  -0.2928  -0.2828  -0.2239  -0.2235
    -0.2101  -0.2100  -0.1872  -0.1751  -0.1749  -0.0924   0.1062   0.1063
     0.1344   0.1355   0.1355   0.1371   0.1371   0.1378   0.2198   0.2200
     0.7346   0.8337   0.8650   0.8655   0.9805   0.9810   0.9810   0.9822
     0.9831   0.9831   1.0213   1.1419   1.3505   1.3510   1.3877   1.3877
     1.4951   1.5101   1.5558   1.5579   1.5581   1.6105   1.7048   1.7264
     1.7265   1.7684

     occupation numbers 
     1.0000   1.0000   1.0000   1.0000   1.0000   1.0000   1.0000   1.0000
     1.0000   1.0000   1.0000   1.0000   1.0000   1.0000   1.0000   1.0000
     1.0000   1.0000   1.0000   1.0000   1.0000   1.0000   1.0000   1.0000
     1.0000   1.0000   1.0000   1.0000   1.0000   1.0000   1.0000   1.0000
     1.0000   1.0000   1.0000   1.0000   1.0000   1.0000   1.0000   1.0000
     1.0000   1.0000   1.0000   1.0000   1.0000   1.0000   1.0000   1.0000
     1.0000   1.0000   1.0000   1.0000   1.0000   1.0000   1.0000   1.0000
     1.0000   1.0000   1.0000   1.0000   1.0000   1.0000   1.0000   1.0000
     1.0000   1.0000   1.0000   1.0000   1.0000   1.0000   1.0000   1.0000
     1.0000   1.0000   1.0000   1.0000   1.0000   1.0000   1.0000   1.0000
     1.0000   1.0000   1.0000   1.0000   1.0000   1.0000   1.0000   1.0000
     1.0000   1.0000   1.0000   1.0000   1.0000   1.0000   1.0000   1.0000
     1.0000   1.0000   1.0000   1.0000   1.0000   1.0000   1.0000   1.0000
     1.0000   1.0000   1.0000   1.0000   1.0000   1.0000   1.0000   1.0000
     1.0000   1.0000   1.0000   1.0000   1.0000   1.0000   1.0000   1.0000
     1.0000   1.0000   1.0000   1.0000   1.0000   1.0000   1.0000   1.0000
     1.0000   1.0000   1.0000   1.0000   1.0000   1.0000   1.0000   1.0000
     1.0000   1.0000   1.0000   1.0000   1.0000   1.0000   1.0000   1.0000
     1.0000   1.0000   1.0000   1.0000   1.0000   1.0000   1.0000   1.0000
     1.0000   1.0000   1.0000   1.0000   1.0000   1.0000   1.0000   1.0000
     1.0000   1.0000   1.0000   1.0000   1.0000   1.0000   1.0000   1.0000
     1.0000   1.0000   1.0000   1.0000   1.0000   1.0000   1.0000   1.0000
     1.0000   1.0000   1.0000   1.0000   1.0000   1.0000   1.0000   1.0000
     1.0000   1.0000   1.0000   1.0000   1.0000   1.0000   1.0000   1.0000
     1.0000   1.0000   1.0000   1.0000   1.0000   1.0000   1.0000   1.0000
     1.0000   1.0000   1.0000   1.0000   1.0000   1.0000   1.0000   1.0000
     1.0000   1.0000   1.0000   1.0000   1.0000   1.0000   1.0000   1.0000
     1.0000   1.0000   1.0000   1.0000   1.0000   1.0000   1.0000   1.0000
     1.0000   1.0000   1.0000   1.0000   1.0000   1.0000   1.0000   1.0000
     1.0000   1.0000   1.0000   1.0000   1.0000   1.0000   1.0000   1.0000
     1.0000   1.0000   1.0000   1.0000   1.0000   1.0000   1.0000   1.0000
     1.0000   1.0000   1.0000   1.0000   1.0000   1.0000   1.0000   1.0000
     1.0000   1.0000   1.0000   1.0000   1.0000   1.0000   1.0000   1.0000
     1.0000   1.0000   1.0000   1.0000   1.0000   1.0000   1.0000   1.0000
     1.0000   1.0000   1.0000   1.0000   1.0000   1.0000   1.0000   1.0000
     1.0000   1.0000   1.0000   1.0000   1.0000   1.0000   1.0000   1.0000
     1.0000   1.0000   1.0000   1.0000   1.0000   1.0000   1.0000   1.0000
     1.0000   1.0000   1.0000   1.0000   1.0000   1.0000   1.0000   1.0000
     1.0000   1.0000   1.0000   1.0000   1.0000   1.0000   1.0000   1.0000
     1.0000   1.0000   1.0000   1.0000   1.0000   1.0000   1.0000   1.0000
     1.0000   1.0000   1.0000   1.0000   1.0000   1.0000   1.0000   1.0000
     1.0000   1.0000   1.0000   1.0000   1.0000   1.0000   1.0000   1.0000
     1.0000   1.0000   1.0000   1.0000   1.0000   1.0000   1.0000   1.0000
     1.0000   1.0000   1.0000   1.0000   1.0000   1.0000   1.0000   1.0000
     1.0000   1.0000   1.0000   1.0000   1.0000   1.0000   1.0000   1.0000
     1.0000   1.0000   1.0000   1.0000   1.0000   1.0000   1.0000   1.0000
     1.0000   1.0000   1.0000   1.0000   1.0000   1.0000   1.0000   1.0000
     1.0000   1.0000   1.0000   1.0000   1.0000   1.0000   1.0000   1.0000
     1.0000   1.0000   1.0000   1.0000   1.0000   1.0000   1.0000   1.0000
     1.0000   1.0000   1.0000   1.0000   1.0000   1.0000   1.0000   1.0000
     1.0000   1.0000   1.0000   1.0000   1.0000   1.0000   1.0000   1.0000
     1.0000   1.0000   1.0000   1.0000   1.0000   1.0000   1.0000   1.0000
     1.0000   1.0000   1.0000   1.0000   1.0000   1.0000   1.0000   1.0000
     1.0000   1.0000   1.0000   1.0000   1.0000   1.0000   1.0000   1.0000
     1.0000   1.0000   1.0000   1.0000   1.0000   1.0000   1.0000   1.0000
     1.0000   1.0000   1.0000   1.0000   1.0000   1.0000   1.0000   1.0000
     1.0000   1.0000   1.0000   1.0000   1.0000   1.0000   1.0000   1.0000
     1.0000   1.0000   1.0000   1.0000   1.0000   1.0000   1.0000   1.0000
     1.0000   1.0000   1.0000   1.0000   1.0000   1.0000   1.0000   1.0000
     1.0001   1.0001   1.0001   1.0001   1.0001   1.0001   1.0002   1.0002
     1.0002   1.0003   1.0003   1.0004   1.0005   1.0009   1.0010   1.0025
     1.0028   1.0028   1.0035   1.0035   1.0037   1.0053   1.0053   1.0063
     1.0109   1.0124   1.0163   1.0163   1.0258   1.0306   1.0307   1.0344
     1.0402   1.0403   1.0736   1.0736   1.0718   1.0710   1.0710   1.0691
     1.0673   1.0673   0.7818   0.7815   0.7727   0.6007   0.6007   0.5019
     0.4526   0.4526   0.4407   0.4312   0.4309   0.3899   0.3891   0.3781
     0.3500   0.3382   0.3367   0.0073   0.0000   0.0000   0.0000   0.0000
     0.0000   0.0000   0.0000   0.0000   0.0000   0.0000   0.0000   0.0000
     0.0000   0.0000   0.0000   0.0000   0.0000   0.0000   0.0000   0.0000
     0.0000   0.0000   0.0000   0.0000   0.0000   0.0000   0.0000   0.0000
     0.0000   0.0000   0.0000   0.0000   0.0000   0.0000   0.0000   0.0000
     0.0000   0.0000   0.0000   0.0000   0.0000   0.0000   0.0000   0.0000
     0.0000   0.0000   0.0000   0.0000   0.0000   0.0000   0.0000   0.0000
     0.0000   0.0000   0.0000   0.0000   0.0000   0.0000   0.0000   0.0000
     0.0000   0.0000   0.0000   0.0000   0.0000   0.0000   0.0000   0.0000
     0.0000   0.0000   0.0000   0.0000   0.0000   0.0000   0.0000   0.0000
     0.0000   0.0000   0.0000   0.0000   0.0000   0.0000   0.0000   0.0000
     0.0000   0.0000   0.0000   0.0000   0.0000   0.0000   0.0000   0.0000
     0.0000   0.0000   0.0000   0.0000   0.0000   0.0000   0.0000   0.0000
     0.0000   0.0000   0.0000   0.0000   0.0000   0.0000   0.0000   0.0000
     0.0000   0.0000   0.0000   0.0000   0.0000   0.0000   0.0000   0.0000
     0.0000   0.0000

          k = 0.0000-0.5774 0.0000 (319994 PWs)   bands (ev):

   -59.6525 -59.6482 -59.6470 -59.6125 -59.6111 -59.6107 -59.5934 -59.5912
   -59.5898 -59.5871 -59.5866 -59.5858 -59.5796 -59.5792 -59.5785 -59.5688
   -35.7912 -35.7900 -35.7856 -35.7712 -35.7624 -35.7549 -35.7534 -35.7458
   -35.7347 -35.7297 -35.7288 -35.7220 -35.7037 -35.6973 -35.6838 -35.6785
   -35.6779 -35.6758 -35.6672 -35.6639 -35.6633 -35.6554 -35.6484 -35.6448
   -35.6423 -35.6404 -35.6385 -35.6348 -35.6345 -35.6312 -35.6280 -35.6259
   -35.6255 -35.6183 -35.6174 -35.6158 -35.6152 -35.6107 -35.6084 -35.6066
   -35.6053 -35.6021 -35.6010 -35.5998 -35.5989 -35.5984 -35.5918 -35.5894
   -23.6988 -23.6661 -23.4445 -23.4379 -23.0423 -23.0380 -23.0241 -23.0166
   -22.9291 -22.6559 -22.6381 -22.6091 -22.4573 -22.4536 -22.4466 -22.4359
   -22.4017 -22.3975 -22.1336 -22.1280 -22.1105 -22.1068 -22.0177 -22.0069
   -21.9934 -21.9842 -21.9610 -21.9494 -21.9354 -21.9214 -21.8579 -21.8424
   -21.8398 -21.8367 -21.8068 -21.7355 -21.7288 -21.7043 -21.7009 -21.6853
   -21.6799 -21.6581 -21.6529 -21.6172 -21.5994 -21.5281 -21.5160 -21.5117
   -21.4980 -21.4590 -21.4526 -21.4415 -21.4288 -21.4156 -21.4116 -21.4034
   -21.3914 -21.3815 -21.3770 -21.3578 -21.3512 -21.3314 -21.3146 -21.2809
   -21.1721 -21.1698 -21.1592 -21.1566 -21.0299 -21.0291 -21.0256 -21.0231
   -20.9989 -20.9967 -20.9800 -20.9577 -20.9571 -20.9135 -20.9114 -20.8886
   -20.8865 -17.7107 -17.6880 -17.4369 -17.4269 -17.0361 -17.0283 -17.0206
   -17.0159 -16.9125 -16.8538 -16.7855 -16.7637 -16.7357 -16.7059 -16.6908
   -16.6591 -16.6573 -16.6529 -16.5575 -16.5548 -16.4887 -16.4871 -16.4832
   -16.4794 -16.4426 -16.4073 -16.3588 -16.3470 -16.3382 -16.3209 -16.2711
   -16.2698 -11.1175 -11.0165 -10.9972 -10.8980 -10.8896 -10.8817 -10.8674
   -10.8539 -10.8344 -10.8011 -10.7507 -10.7421 -10.6808 -10.6696 -10.6606
   -10.6414 -10.6342 -10.6276 -10.4656 -10.4639 -10.3742 -10.3631 -10.3455
   -10.3368 -10.3262 -10.3114 -10.2965 -10.2896 -10.1957 -10.1871 -10.1724
   -10.0934 -10.0803 -10.0322 -10.0158  -9.8883  -9.7766  -9.6549  -9.6478
    -9.6356  -9.6275  -9.5791  -9.5747  -9.4630  -9.4489  -9.3160  -9.2948
    -9.2827  -9.2697  -9.2566  -9.2524  -9.1531  -9.1513  -9.1381  -9.1282
    -9.1205  -9.1103  -9.1020  -9.0817  -9.0440  -9.0244  -9.0165  -8.9976
    -8.9855  -8.9409  -8.9335  -8.9083  -8.9027  -8.9011  -8.8718  -8.8186
    -8.7969  -8.7920  -8.7593  -8.7505  -8.7171  -8.7071  -8.6918  -8.6808
    -8.6320  -8.6250  -8.6219  -8.6172  -8.6171  -8.6101  -8.5782  -8.5412
    -8.5356  -8.5103  -8.5063  -8.4988  -8.4977  -8.4417  -8.4261  -8.3999
    -8.3890  -8.3777  -8.3468  -8.3400  -8.2845  -8.2711  -8.2613  -8.2421
    -8.1997  -8.1968  -8.1783  -8.1187  -8.1085  -8.0623  -8.0569  -8.0525
    -8.0404  -8.0294  -7.9958  -7.9774  -7.9654  -7.9545  -7.9332  -7.9280
    -7.9225  -7.8758  -7.8574  -7.8494  -7.8339  -7.8197  -7.8096  -7.7808
    -7.7729  -7.7646  -7.7272  -7.7132  -7.7066  -7.6823  -7.6717  -7.6478
    -7.6380  -7.6280  -7.6136  -7.6074  -7.5983  -7.5884  -7.5784  -7.5638
    -7.5594  -7.5557  -7.5327  -7.5266  -7.4858  -7.4465  -7.4267  -7.4171
    -7.4128  -7.3873  -7.3131  -7.3010  -7.2971  -7.2886  -7.2681  -7.2632
    -7.2530  -7.2400  -7.2388  -7.2131  -7.1687  -7.1659  -7.1413  -7.1004
    -7.0890  -7.0839  -7.0770  -7.0698  -7.0551  -7.0042  -7.0020  -6.9779
    -6.9429  -6.9401  -6.9354  -6.9309  -6.9223  -6.9141  -6.9084  -6.8907
    -6.8888  -6.8563  -6.8550  -6.8413  -6.8281  -6.8199  -6.8027  -6.7940
    -6.7886  -6.7811  -6.7771  -6.7686  -6.7606  -6.7545  -6.7452  -6.7420
    -6.7365  -6.7291  -6.7079  -6.7006  -6.6972  -6.6858  -6.6760  -6.6483
    -6.6355  -6.6075  -6.5631  -6.5552  -6.5193  -6.5021  -6.4797  -6.4736
    -6.4298  -6.4138  -6.4074  -6.4012  -6.3955  -6.3911  -6.3870  -6.3817
    -6.3604  -6.3359  -6.3233  -6.2994  -6.2865  -6.2410  -6.2359  -6.2183
    -6.2123  -6.1959  -6.1880  -6.1797  -6.1734  -6.1686  -6.1646  -6.1586
    -6.1418  -6.1373  -6.1297  -6.1282  -6.1122  -6.1075  -6.0919  -6.0794
    -6.0648  -6.0577  -6.0513  -6.0440  -6.0395  -6.0333  -6.0304  -6.0247
    -6.0213  -6.0142  -6.0053  -6.0034  -5.9541  -5.9470  -5.9345  -5.9241
    -5.8879  -5.8857  -5.8595  -5.8315  -5.8289  -5.8149  -5.8057  -5.7864
    -5.7844  -5.7779  -5.7713  -5.7638  -5.7542  -5.7287  -5.7249  -5.7092
    -5.6914  -5.6634  -5.6496  -5.6421  -5.6215  -5.6117  -5.6070  -5.5917
    -5.5711  -5.5426  -5.5295  -5.5134  -5.4999  -5.4851  -5.4583  -5.4356
    -5.4187  -5.4143  -5.3992  -5.3801  -5.3706  -5.3565  -5.3503  -5.3348
    -5.3167  -5.2846  -5.2763  -5.2712  -5.2523  -5.2385  -5.2294  -5.2063
    -5.1987  -5.1879  -5.1386  -5.1296  -5.1269  -5.1040  -5.0823  -5.0668
    -5.0460  -5.0447  -5.0225  -5.0134  -4.9932  -4.9676  -4.9443  -4.8606
    -4.8385  -4.8062  -4.7615  -4.7596  -4.7537  -4.7512  -4.7481  -4.7397
    -4.6774  -4.6537  -4.6367  -4.6362  -4.5992  -4.5986  -4.5872  -4.5815
    -4.5418  -4.5386  -4.4531  -4.4359  -4.4148  -4.4032  -4.2438  -4.2281
    -4.0954  -4.0899  -3.9189  -3.9173  -3.8008  -3.7661  -3.7534  -3.7530
    -3.6050  -3.6038  -3.6005  -3.5969  -3.5891  -2.6624  -2.6554  -2.2622
    -2.2298  -2.2195  -2.2057  -2.1968  -2.1861  -2.1806  -2.1476  -2.1447
    -2.1371  -2.0766  -2.0632  -1.9894  -1.9812  -1.9436  -1.9248  -1.9188
    -1.9155  -1.8999  -1.8932  -1.8746  -1.8531  -1.8424  -1.8297  -1.8056
    -1.7906  -1.7807  -1.7625  -1.7476  -1.7150  -1.6326  -1.6262  -1.5524
    -1.5497  -1.5405  -1.5354  -1.3923  -1.3567  -1.2370  -1.2324  -1.1927
    -1.1919  -1.1537  -1.0085  -0.9988  -0.9927  -0.9556  -0.9247  -0.8890
    -0.8695  -0.8302  -0.8288  -0.7763  -0.7760  -0.4288  -0.4108  -0.3990
    -0.3937  -0.3842  -0.3614  -0.3443  -0.3351  -0.3293  -0.3234  -0.3064
    -0.3044  -0.3032  -0.3017  -0.3006  -0.2445  -0.2357  -0.1323  -0.1312
     0.1242   0.1244   0.4760   0.4767   0.4796   0.4806   0.6156   0.6359
     0.6768   0.9022   0.9751   1.0049   1.0159   1.0172   1.0196   1.0218
     1.0228   1.0379   1.0768   1.1112   1.1357   1.2154   1.2554   1.3256
     1.3271   1.4229   1.4488   1.4908   1.5380   1.5584   1.5614   1.5662
     1.6213   1.6716

     occupation numbers 
     1.0000   1.0000   1.0000   1.0000   1.0000   1.0000   1.0000   1.0000
     1.0000   1.0000   1.0000   1.0000   1.0000   1.0000   1.0000   1.0000
     1.0000   1.0000   1.0000   1.0000   1.0000   1.0000   1.0000   1.0000
     1.0000   1.0000   1.0000   1.0000   1.0000   1.0000   1.0000   1.0000
     1.0000   1.0000   1.0000   1.0000   1.0000   1.0000   1.0000   1.0000
     1.0000   1.0000   1.0000   1.0000   1.0000   1.0000   1.0000   1.0000
     1.0000   1.0000   1.0000   1.0000   1.0000   1.0000   1.0000   1.0000
     1.0000   1.0000   1.0000   1.0000   1.0000   1.0000   1.0000   1.0000
     1.0000   1.0000   1.0000   1.0000   1.0000   1.0000   1.0000   1.0000
     1.0000   1.0000   1.0000   1.0000   1.0000   1.0000   1.0000   1.0000
     1.0000   1.0000   1.0000   1.0000   1.0000   1.0000   1.0000   1.0000
     1.0000   1.0000   1.0000   1.0000   1.0000   1.0000   1.0000   1.0000
     1.0000   1.0000   1.0000   1.0000   1.0000   1.0000   1.0000   1.0000
     1.0000   1.0000   1.0000   1.0000   1.0000   1.0000   1.0000   1.0000
     1.0000   1.0000   1.0000   1.0000   1.0000   1.0000   1.0000   1.0000
     1.0000   1.0000   1.0000   1.0000   1.0000   1.0000   1.0000   1.0000
     1.0000   1.0000   1.0000   1.0000   1.0000   1.0000   1.0000   1.0000
     1.0000   1.0000   1.0000   1.0000   1.0000   1.0000   1.0000   1.0000
     1.0000   1.0000   1.0000   1.0000   1.0000   1.0000   1.0000   1.0000
     1.0000   1.0000   1.0000   1.0000   1.0000   1.0000   1.0000   1.0000
     1.0000   1.0000   1.0000   1.0000   1.0000   1.0000   1.0000   1.0000
     1.0000   1.0000   1.0000   1.0000   1.0000   1.0000   1.0000   1.0000
     1.0000   1.0000   1.0000   1.0000   1.0000   1.0000   1.0000   1.0000
     1.0000   1.0000   1.0000   1.0000   1.0000   1.0000   1.0000   1.0000
     1.0000   1.0000   1.0000   1.0000   1.0000   1.0000   1.0000   1.0000
     1.0000   1.0000   1.0000   1.0000   1.0000   1.0000   1.0000   1.0000
     1.0000   1.0000   1.0000   1.0000   1.0000   1.0000   1.0000   1.0000
     1.0000   1.0000   1.0000   1.0000   1.0000   1.0000   1.0000   1.0000
     1.0000   1.0000   1.0000   1.0000   1.0000   1.0000   1.0000   1.0000
     1.0000   1.0000   1.0000   1.0000   1.0000   1.0000   1.0000   1.0000
     1.0000   1.0000   1.0000   1.0000   1.0000   1.0000   1.0000   1.0000
     1.0000   1.0000   1.0000   1.0000   1.0000   1.0000   1.0000   1.0000
     1.0000   1.0000   1.0000   1.0000   1.0000   1.0000   1.0000   1.0000
     1.0000   1.0000   1.0000   1.0000   1.0000   1.0000   1.0000   1.0000
     1.0000   1.0000   1.0000   1.0000   1.0000   1.0000   1.0000   1.0000
     1.0000   1.0000   1.0000   1.0000   1.0000   1.0000   1.0000   1.0000
     1.0000   1.0000   1.0000   1.0000   1.0000   1.0000   1.0000   1.0000
     1.0000   1.0000   1.0000   1.0000   1.0000   1.0000   1.0000   1.0000
     1.0000   1.0000   1.0000   1.0000   1.0000   1.0000   1.0000   1.0000
     1.0000   1.0000   1.0000   1.0000   1.0000   1.0000   1.0000   1.0000
     1.0000   1.0000   1.0000   1.0000   1.0000   1.0000   1.0000   1.0000
     1.0000   1.0000   1.0000   1.0000   1.0000   1.0000   1.0000   1.0000
     1.0000   1.0000   1.0000   1.0000   1.0000   1.0000   1.0000   1.0000
     1.0000   1.0000   1.0000   1.0000   1.0000   1.0000   1.0000   1.0000
     1.0000   1.0000   1.0000   1.0000   1.0000   1.0000   1.0000   1.0000
     1.0000   1.0000   1.0000   1.0000   1.0000   1.0000   1.0000   1.0000
     1.0000   1.0000   1.0000   1.0000   1.0000   1.0000   1.0000   1.0000
     1.0000   1.0000   1.0000   1.0000   1.0000   1.0000   1.0000   1.0000
     1.0000   1.0000   1.0000   1.0000   1.0000   1.0000   1.0000   1.0000
     1.0000   1.0000   1.0000   1.0000   1.0000   1.0000   1.0000   1.0000
     1.0000   1.0000   1.0000   1.0000   1.0000   1.0000   1.0000   1.0000
     1.0000   1.0000   1.0000   1.0000   1.0000   1.0000   1.0000   1.0000
     1.0000   1.0000   1.0000   1.0000   1.0000   1.0000   1.0000   1.0000
     1.0000   1.0000   1.0000   1.0000   1.0000   1.0000   1.0000   1.0000
     1.0000   1.0000   1.0000   1.0000   1.0000   1.0000   1.0000   1.0000
     1.0000   1.0000   1.0000   1.0000   1.0000   1.0000   1.0000   1.0000
     1.0000   1.0000   1.0000   1.0000   1.0000   1.0000   1.0000   1.0000
     1.0000   1.0000   1.0000   1.0000   1.0000   1.0000   1.0000   1.0000
     1.0000   1.0000   1.0000   1.0000   1.0000   1.0000   1.0000   1.0000
     1.0000   1.0000   1.0000   1.0001   1.0001   1.0001   1.0001   1.0002
     1.0002   1.0004   1.0005   1.0006   1.0008   1.0010   1.0012   1.0017
     1.0019   1.0023   1.0048   1.0054   1.0056   1.0076   1.0100   1.0121
     1.0154   1.0157   1.0199   1.0219   1.0267   1.0338   1.0409   1.0691
     1.0754   1.0818   1.0815   1.0812   1.0800   1.0794   1.0786   1.0759
     1.0334   1.0053   0.9809   0.9801   0.9144   0.9133   0.8898   0.8776
     0.7839   0.7758   0.5439   0.4968   0.4408   0.4110   0.1133   0.0964
     0.0193   0.0179   0.0011   0.0011   0.0001   0.0000   0.0000   0.0000
     0.0000   0.0000   0.0000   0.0000   0.0000   0.0000   0.0000   0.0000
     0.0000   0.0000   0.0000   0.0000   0.0000   0.0000   0.0000   0.0000
     0.0000   0.0000   0.0000   0.0000   0.0000   0.0000   0.0000   0.0000
     0.0000   0.0000   0.0000   0.0000   0.0000   0.0000   0.0000   0.0000
     0.0000   0.0000   0.0000   0.0000   0.0000   0.0000   0.0000   0.0000
     0.0000   0.0000   0.0000   0.0000   0.0000   0.0000   0.0000   0.0000
     0.0000   0.0000   0.0000   0.0000   0.0000   0.0000   0.0000   0.0000
     0.0000   0.0000   0.0000   0.0000   0.0000   0.0000   0.0000   0.0000
     0.0000   0.0000   0.0000   0.0000   0.0000   0.0000   0.0000   0.0000
     0.0000   0.0000   0.0000   0.0000   0.0000   0.0000   0.0000   0.0000
     0.0000   0.0000   0.0000   0.0000   0.0000   0.0000   0.0000   0.0000
     0.0000   0.0000   0.0000   0.0000   0.0000   0.0000   0.0000   0.0000
     0.0000   0.0000   0.0000   0.0000   0.0000   0.0000   0.0000   0.0000
     0.0000   0.0000   0.0000   0.0000   0.0000   0.0000   0.0000   0.0000
     0.0000   0.0000

          k =-0.5000-0.2887 0.0000 (319994 PWs)   bands (ev):

   -59.6525 -59.6482 -59.6470 -59.6124 -59.6112 -59.6106 -59.5934 -59.5911
   -59.5897 -59.5873 -59.5865 -59.5857 -59.5796 -59.5793 -59.5785 -59.5688
   -35.7908 -35.7905 -35.7855 -35.7710 -35.7628 -35.7548 -35.7534 -35.7460
   -35.7345 -35.7298 -35.7288 -35.7220 -35.7038 -35.6974 -35.6838 -35.6784
   -35.6776 -35.6758 -35.6676 -35.6642 -35.6629 -35.6549 -35.6485 -35.6449
   -35.6423 -35.6406 -35.6387 -35.6352 -35.6342 -35.6310 -35.6279 -35.6258
   -35.6255 -35.6184 -35.6173 -35.6159 -35.6152 -35.6108 -35.6085 -35.6067
   -35.6050 -35.6021 -35.6010 -35.6001 -35.5987 -35.5983 -35.5918 -35.5894
   -23.6988 -23.6661 -23.4445 -23.4379 -23.0422 -23.0381 -23.0242 -23.0166
   -22.9291 -22.6559 -22.6380 -22.6091 -22.4574 -22.4536 -22.4465 -22.4360
   -22.4019 -22.3973 -22.1336 -22.1280 -22.1106 -22.1068 -22.0177 -22.0069
   -21.9935 -21.9842 -21.9610 -21.9495 -21.9353 -21.9214 -21.8578 -21.8424
   -21.8398 -21.8367 -21.8069 -21.7354 -21.7287 -21.7044 -21.7009 -21.6852
   -21.6800 -21.6581 -21.6529 -21.6171 -21.5994 -21.5281 -21.5160 -21.5116
   -21.4981 -21.4589 -21.4526 -21.4416 -21.4288 -21.4156 -21.4116 -21.4034
   -21.3914 -21.3814 -21.3771 -21.3578 -21.3512 -21.3314 -21.3146 -21.2809
   -21.1721 -21.1698 -21.1592 -21.1566 -21.0299 -21.0291 -21.0257 -21.0231
   -20.9990 -20.9967 -20.9800 -20.9577 -20.9570 -20.9135 -20.9114 -20.8886
   -20.8865 -17.7108 -17.6880 -17.4370 -17.4269 -17.0359 -17.0284 -17.0207
   -17.0157 -16.9126 -16.8538 -16.7853 -16.7639 -16.7358 -16.7060 -16.6907
   -16.6590 -16.6572 -16.6526 -16.5574 -16.5549 -16.4889 -16.4871 -16.4831
   -16.4795 -16.4427 -16.4072 -16.3586 -16.3466 -16.3386 -16.3210 -16.2711
   -16.2698 -11.1175 -11.0165 -10.9972 -10.8980 -10.8896 -10.8817 -10.8673
   -10.8539 -10.8344 -10.8011 -10.7507 -10.7421 -10.6808 -10.6697 -10.6607
   -10.6414 -10.6342 -10.6275 -10.4656 -10.4639 -10.3742 -10.3630 -10.3456
   -10.3368 -10.3262 -10.3114 -10.2965 -10.2896 -10.1958 -10.1870 -10.1724
   -10.0934 -10.0803 -10.0322 -10.0157  -9.8883  -9.7765  -9.6549  -9.6478
    -9.6356  -9.6275  -9.5791  -9.5747  -9.4630  -9.4489  -9.3160  -9.2948
    -9.2826  -9.2697  -9.2566  -9.2523  -9.1531  -9.1513  -9.1382  -9.1282
    -9.1205  -9.1103  -9.1021  -9.0816  -9.0438  -9.0244  -9.0166  -8.9978
    -8.9854  -8.9408  -8.9336  -8.9083  -8.9029  -8.9011  -8.8719  -8.8185
    -8.7969  -8.7920  -8.7593  -8.7505  -8.7171  -8.7072  -8.6918  -8.6807
    -8.6320  -8.6251  -8.6219  -8.6172  -8.6171  -8.6100  -8.5783  -8.5414
    -8.5357  -8.5103  -8.5063  -8.4986  -8.4973  -8.4417  -8.4261  -8.3998
    -8.3889  -8.3777  -8.3468  -8.3400  -8.2842  -8.2716  -8.2612  -8.2423
    -8.1997  -8.1967  -8.1782  -8.1186  -8.1087  -8.0624  -8.0567  -8.0525
    -8.0404  -8.0294  -7.9959  -7.9773  -7.9654  -7.9545  -7.9332  -7.9279
    -7.9222  -7.8762  -7.8576  -7.8493  -7.8342  -7.8199  -7.8096  -7.7810
    -7.7729  -7.7646  -7.7272  -7.7130  -7.7065  -7.6820  -7.6716  -7.6475
    -7.6381  -7.6280  -7.6135  -7.6075  -7.5982  -7.5883  -7.5783  -7.5639
    -7.5595  -7.5559  -7.5327  -7.5266  -7.4857  -7.4466  -7.4267  -7.4171
    -7.4128  -7.3873  -7.3131  -7.3011  -7.2971  -7.2886  -7.2682  -7.2631
    -7.2533  -7.2400  -7.2389  -7.2131  -7.1687  -7.1659  -7.1413  -7.1003
    -7.0890  -7.0838  -7.0769  -7.0698  -7.0553  -7.0043  -7.0020  -6.9782
    -6.9431  -6.9404  -6.9352  -6.9310  -6.9223  -6.9140  -6.9084  -6.8906
    -6.8887  -6.8562  -6.8549  -6.8413  -6.8281  -6.8196  -6.8028  -6.7942
    -6.7884  -6.7810  -6.7772  -6.7686  -6.7607  -6.7546  -6.7453  -6.7418
    -6.7363  -6.7292  -6.7079  -6.7006  -6.6973  -6.6857  -6.6757  -6.6483
    -6.6355  -6.6075  -6.5631  -6.5553  -6.5192  -6.5021  -6.4796  -6.4735
    -6.4298  -6.4139  -6.4074  -6.4012  -6.3955  -6.3912  -6.3871  -6.3817
    -6.3604  -6.3359  -6.3234  -6.2991  -6.2865  -6.2410  -6.2360  -6.2183
    -6.2124  -6.1958  -6.1880  -6.1801  -6.1734  -6.1685  -6.1646  -6.1585
    -6.1419  -6.1372  -6.1300  -6.1283  -6.1118  -6.1080  -6.0921  -6.0792
    -6.0647  -6.0574  -6.0514  -6.0440  -6.0392  -6.0334  -6.0302  -6.0251
    -6.0210  -6.0143  -6.0052  -6.0033  -5.9542  -5.9470  -5.9345  -5.9241
    -5.8880  -5.8858  -5.8596  -5.8315  -5.8290  -5.8146  -5.8055  -5.7863
    -5.7845  -5.7780  -5.7713  -5.7640  -5.7541  -5.7287  -5.7250  -5.7090
    -5.6912  -5.6632  -5.6496  -5.6421  -5.6217  -5.6117  -5.6070  -5.5917
    -5.5710  -5.5427  -5.5296  -5.5133  -5.4998  -5.4850  -5.4585  -5.4357
    -5.4187  -5.4143  -5.3993  -5.3799  -5.3708  -5.3562  -5.3503  -5.3347
    -5.3167  -5.2846  -5.2762  -5.2714  -5.2522  -5.2383  -5.2293  -5.2066
    -5.1987  -5.1880  -5.1387  -5.1295  -5.1269  -5.1040  -5.0823  -5.0667
    -5.0461  -5.0446  -5.0224  -5.0134  -4.9932  -4.9672  -4.9448  -4.8605
    -4.8385  -4.8061  -4.7615  -4.7596  -4.7537  -4.7512  -4.7481  -4.7397
    -4.6779  -4.6543  -4.6367  -4.6362  -4.5992  -4.5987  -4.5870  -4.5813
    -4.5418  -4.5386  -4.4532  -4.4372  -4.4132  -4.4030  -4.2438  -4.2278
    -4.0955  -4.0899  -3.9189  -3.9173  -3.8009  -3.7661  -3.7534  -3.7530
    -3.6050  -3.6038  -3.6005  -3.5969  -3.5891  -2.6624  -2.6554  -2.2626
    -2.2293  -2.2193  -2.2062  -2.1971  -2.1856  -2.1808  -2.1468  -2.1451
    -2.1369  -2.0768  -2.0635  -1.9890  -1.9808  -1.9434  -1.9257  -1.9190
    -1.9155  -1.9000  -1.8928  -1.8755  -1.8531  -1.8420  -1.8287  -1.8061
    -1.7913  -1.7799  -1.7635  -1.7469  -1.7143  -1.6334  -1.6255  -1.5526
    -1.5493  -1.5405  -1.5353  -1.3924  -1.3568  -1.2371  -1.2328  -1.1927
    -1.1919  -1.1543  -1.0081  -0.9990  -0.9931  -0.9538  -0.9255  -0.8886
    -0.8709  -0.8301  -0.8286  -0.7763  -0.7760  -0.4282  -0.4108  -0.3987
    -0.3935  -0.3839  -0.3612  -0.3442  -0.3349  -0.3294  -0.3228  -0.3064
    -0.3045  -0.3032  -0.3017  -0.3009  -0.2451  -0.2363  -0.1323  -0.1312
     0.1242   0.1244   0.4760   0.4767   0.4796   0.4806   0.6156   0.6358
     0.6768   0.9022   0.9752   1.0049   1.0159   1.0172   1.0196   1.0218
     1.0228   1.0379   1.0772   1.1110   1.1356   1.2147   1.2554   1.3256
     1.3271   1.4232   1.4490   1.4911   1.5378   1.5584   1.5614   1.5661
     1.6226   1.6716

     occupation numbers 
     1.0000   1.0000   1.0000   1.0000   1.0000   1.0000   1.0000   1.0000
     1.0000   1.0000   1.0000   1.0000   1.0000   1.0000   1.0000   1.0000
     1.0000   1.0000   1.0000   1.0000   1.0000   1.0000   1.0000   1.0000
     1.0000   1.0000   1.0000   1.0000   1.0000   1.0000   1.0000   1.0000
     1.0000   1.0000   1.0000   1.0000   1.0000   1.0000   1.0000   1.0000
     1.0000   1.0000   1.0000   1.0000   1.0000   1.0000   1.0000   1.0000
     1.0000   1.0000   1.0000   1.0000   1.0000   1.0000   1.0000   1.0000
     1.0000   1.0000   1.0000   1.0000   1.0000   1.0000   1.0000   1.0000
     1.0000   1.0000   1.0000   1.0000   1.0000   1.0000   1.0000   1.0000
     1.0000   1.0000   1.0000   1.0000   1.0000   1.0000   1.0000   1.0000
     1.0000   1.0000   1.0000   1.0000   1.0000   1.0000   1.0000   1.0000
     1.0000   1.0000   1.0000   1.0000   1.0000   1.0000   1.0000   1.0000
     1.0000   1.0000   1.0000   1.0000   1.0000   1.0000   1.0000   1.0000
     1.0000   1.0000   1.0000   1.0000   1.0000   1.0000   1.0000   1.0000
     1.0000   1.0000   1.0000   1.0000   1.0000   1.0000   1.0000   1.0000
     1.0000   1.0000   1.0000   1.0000   1.0000   1.0000   1.0000   1.0000
     1.0000   1.0000   1.0000   1.0000   1.0000   1.0000   1.0000   1.0000
     1.0000   1.0000   1.0000   1.0000   1.0000   1.0000   1.0000   1.0000
     1.0000   1.0000   1.0000   1.0000   1.0000   1.0000   1.0000   1.0000
     1.0000   1.0000   1.0000   1.0000   1.0000   1.0000   1.0000   1.0000
     1.0000   1.0000   1.0000   1.0000   1.0000   1.0000   1.0000   1.0000
     1.0000   1.0000   1.0000   1.0000   1.0000   1.0000   1.0000   1.0000
     1.0000   1.0000   1.0000   1.0000   1.0000   1.0000   1.0000   1.0000
     1.0000   1.0000   1.0000   1.0000   1.0000   1.0000   1.0000   1.0000
     1.0000   1.0000   1.0000   1.0000   1.0000   1.0000   1.0000   1.0000
     1.0000   1.0000   1.0000   1.0000   1.0000   1.0000   1.0000   1.0000
     1.0000   1.0000   1.0000   1.0000   1.0000   1.0000   1.0000   1.0000
     1.0000   1.0000   1.0000   1.0000   1.0000   1.0000   1.0000   1.0000
     1.0000   1.0000   1.0000   1.0000   1.0000   1.0000   1.0000   1.0000
     1.0000   1.0000   1.0000   1.0000   1.0000   1.0000   1.0000   1.0000
     1.0000   1.0000   1.0000   1.0000   1.0000   1.0000   1.0000   1.0000
     1.0000   1.0000   1.0000   1.0000   1.0000   1.0000   1.0000   1.0000
     1.0000   1.0000   1.0000   1.0000   1.0000   1.0000   1.0000   1.0000
     1.0000   1.0000   1.0000   1.0000   1.0000   1.0000   1.0000   1.0000
     1.0000   1.0000   1.0000   1.0000   1.0000   1.0000   1.0000   1.0000
     1.0000   1.0000   1.0000   1.0000   1.0000   1.0000   1.0000   1.0000
     1.0000   1.0000   1.0000   1.0000   1.0000   1.0000   1.0000   1.0000
     1.0000   1.0000   1.0000   1.0000   1.0000   1.0000   1.0000   1.0000
     1.0000   1.0000   1.0000   1.0000   1.0000   1.0000   1.0000   1.0000
     1.0000   1.0000   1.0000   1.0000   1.0000   1.0000   1.0000   1.0000
     1.0000   1.0000   1.0000   1.0000   1.0000   1.0000   1.0000   1.0000
     1.0000   1.0000   1.0000   1.0000   1.0000   1.0000   1.0000   1.0000
     1.0000   1.0000   1.0000   1.0000   1.0000   1.0000   1.0000   1.0000
     1.0000   1.0000   1.0000   1.0000   1.0000   1.0000   1.0000   1.0000
     1.0000   1.0000   1.0000   1.0000   1.0000   1.0000   1.0000   1.0000
     1.0000   1.0000   1.0000   1.0000   1.0000   1.0000   1.0000   1.0000
     1.0000   1.0000   1.0000   1.0000   1.0000   1.0000   1.0000   1.0000
     1.0000   1.0000   1.0000   1.0000   1.0000   1.0000   1.0000   1.0000
     1.0000   1.0000   1.0000   1.0000   1.0000   1.0000   1.0000   1.0000
     1.0000   1.0000   1.0000   1.0000   1.0000   1.0000   1.0000   1.0000
     1.0000   1.0000   1.0000   1.0000   1.0000   1.0000   1.0000   1.0000
     1.0000   1.0000   1.0000   1.0000   1.0000   1.0000   1.0000   1.0000
     1.0000   1.0000   1.0000   1.0000   1.0000   1.0000   1.0000   1.0000
     1.0000   1.0000   1.0000   1.0000   1.0000   1.0000   1.0000   1.0000
     1.0000   1.0000   1.0000   1.0000   1.0000   1.0000   1.0000   1.0000
     1.0000   1.0000   1.0000   1.0000   1.0000   1.0000   1.0000   1.0000
     1.0000   1.0000   1.0000   1.0000   1.0000   1.0000   1.0000   1.0000
     1.0000   1.0000   1.0000   1.0000   1.0000   1.0000   1.0000   1.0000
     1.0000   1.0000   1.0000   1.0000   1.0000   1.0000   1.0000   1.0000
     1.0000   1.0000   1.0000   1.0001   1.0001   1.0001   1.0001   1.0002
     1.0002   1.0004   1.0005   1.0006   1.0008   1.0010   1.0012   1.0017
     1.0019   1.0023   1.0048   1.0054   1.0056   1.0076   1.0101   1.0121
     1.0154   1.0157   1.0199   1.0219   1.0267   1.0339   1.0408   1.0691
     1.0754   1.0818   1.0815   1.0812   1.0800   1.0794   1.0786   1.0759
     1.0339   1.0061   0.9809   0.9801   0.9145   0.9135   0.8895   0.8771
     0.7839   0.7758   0.5441   0.5005   0.4365   0.4105   0.1132   0.0962
     0.0193   0.0179   0.0011   0.0011   0.0001   0.0000   0.0000   0.0000
     0.0000   0.0000   0.0000   0.0000   0.0000   0.0000   0.0000   0.0000
     0.0000   0.0000   0.0000   0.0000   0.0000   0.0000   0.0000   0.0000
     0.0000   0.0000   0.0000   0.0000   0.0000   0.0000   0.0000   0.0000
     0.0000   0.0000   0.0000   0.0000   0.0000   0.0000   0.0000   0.0000
     0.0000   0.0000   0.0000   0.0000   0.0000   0.0000   0.0000   0.0000
     0.0000   0.0000   0.0000   0.0000   0.0000   0.0000   0.0000   0.0000
     0.0000   0.0000   0.0000   0.0000   0.0000   0.0000   0.0000   0.0000
     0.0000   0.0000   0.0000   0.0000   0.0000   0.0000   0.0000   0.0000
     0.0000   0.0000   0.0000   0.0000   0.0000   0.0000   0.0000   0.0000
     0.0000   0.0000   0.0000   0.0000   0.0000   0.0000   0.0000   0.0000
     0.0000   0.0000   0.0000   0.0000   0.0000   0.0000   0.0000   0.0000
     0.0000   0.0000   0.0000   0.0000   0.0000   0.0000   0.0000   0.0000
     0.0000   0.0000   0.0000   0.0000   0.0000   0.0000   0.0000   0.0000
     0.0000   0.0000   0.0000   0.0000   0.0000   0.0000   0.0000   0.0000
     0.0000   0.0000

          k =-0.5000-0.8660 0.0000 (319994 PWs)   bands (ev):

   -59.6525 -59.6482 -59.6470 -59.6124 -59.6113 -59.6106 -59.5934 -59.5909
   -59.5901 -59.5872 -59.5862 -59.5860 -59.5797 -59.5792 -59.5785 -59.5688
   -35.7908 -35.7904 -35.7856 -35.7709 -35.7628 -35.7549 -35.7534 -35.7458
   -35.7344 -35.7299 -35.7289 -35.7219 -35.7038 -35.6974 -35.6838 -35.6783
   -35.6776 -35.6759 -35.6676 -35.6642 -35.6630 -35.6550 -35.6485 -35.6449
   -35.6425 -35.6404 -35.6385 -35.6353 -35.6341 -35.6309 -35.6281 -35.6257
   -35.6255 -35.6184 -35.6174 -35.6161 -35.6151 -35.6107 -35.6083 -35.6067
   -35.6051 -35.6022 -35.6008 -35.6001 -35.5989 -35.5984 -35.5918 -35.5893
   -23.6988 -23.6661 -23.4445 -23.4379 -23.0422 -23.0381 -23.0242 -23.0166
   -22.9291 -22.6559 -22.6380 -22.6091 -22.4574 -22.4536 -22.4465 -22.4359
   -22.4018 -22.3973 -22.1336 -22.1280 -22.1105 -22.1069 -22.0177 -22.0068
   -21.9935 -21.9842 -21.9610 -21.9495 -21.9353 -21.9213 -21.8578 -21.8423
   -21.8399 -21.8367 -21.8069 -21.7355 -21.7288 -21.7044 -21.7008 -21.6853
   -21.6800 -21.6580 -21.6529 -21.6172 -21.5994 -21.5281 -21.5160 -21.5116
   -21.4981 -21.4590 -21.4526 -21.4415 -21.4288 -21.4156 -21.4116 -21.4034
   -21.3914 -21.3813 -21.3770 -21.3578 -21.3512 -21.3314 -21.3147 -21.2809
   -21.1721 -21.1698 -21.1592 -21.1566 -21.0299 -21.0291 -21.0257 -21.0232
   -20.9990 -20.9967 -20.9800 -20.9577 -20.9570 -20.9135 -20.9114 -20.8886
   -20.8865 -17.7107 -17.6880 -17.4370 -17.4268 -17.0363 -17.0282 -17.0203
   -17.0160 -16.9125 -16.8539 -16.7854 -16.7639 -16.7357 -16.7060 -16.6907
   -16.6591 -16.6570 -16.6528 -16.5576 -16.5546 -16.4886 -16.4872 -16.4833
   -16.4795 -16.4426 -16.4073 -16.3586 -16.3466 -16.3386 -16.3210 -16.2711
   -16.2698 -11.1175 -11.0165 -10.9972 -10.8980 -10.8896 -10.8817 -10.8674
   -10.8539 -10.8344 -10.8011 -10.7507 -10.7421 -10.6808 -10.6696 -10.6607
   -10.6414 -10.6342 -10.6275 -10.4656 -10.4639 -10.3742 -10.3631 -10.3455
   -10.3368 -10.3261 -10.3114 -10.2965 -10.2896 -10.1958 -10.1870 -10.1724
   -10.0934 -10.0803 -10.0322 -10.0158  -9.8883  -9.7765  -9.6550  -9.6479
    -9.6356  -9.6275  -9.5791  -9.5747  -9.4630  -9.4489  -9.3161  -9.2947
    -9.2827  -9.2697  -9.2565  -9.2524  -9.1531  -9.1513  -9.1382  -9.1283
    -9.1205  -9.1103  -9.1020  -9.0817  -9.0439  -9.0244  -9.0166  -8.9975
    -8.9855  -8.9408  -8.9336  -8.9085  -8.9028  -8.9011  -8.8719  -8.8186
    -8.7969  -8.7919  -8.7593  -8.7506  -8.7171  -8.7071  -8.6918  -8.6807
    -8.6321  -8.6250  -8.6218  -8.6173  -8.6172  -8.6100  -8.5783  -8.5416
    -8.5355  -8.5102  -8.5063  -8.4987  -8.4973  -8.4417  -8.4261  -8.3998
    -8.3888  -8.3778  -8.3469  -8.3399  -8.2843  -8.2714  -8.2611  -8.2423
    -8.1997  -8.1968  -8.1782  -8.1186  -8.1087  -8.0623  -8.0567  -8.0524
    -8.0404  -8.0294  -7.9959  -7.9772  -7.9654  -7.9546  -7.9332  -7.9278
    -7.9221  -7.8762  -7.8575  -7.8495  -7.8342  -7.8196  -7.8096  -7.7809
    -7.7729  -7.7646  -7.7271  -7.7132  -7.7063  -7.6820  -7.6715  -7.6477
    -7.6378  -7.6279  -7.6136  -7.6074  -7.5984  -7.5884  -7.5785  -7.5638
    -7.5593  -7.5558  -7.5328  -7.5268  -7.4857  -7.4466  -7.4267  -7.4171
    -7.4128  -7.3873  -7.3131  -7.3010  -7.2971  -7.2887  -7.2682  -7.2632
    -7.2532  -7.2400  -7.2389  -7.2131  -7.1687  -7.1659  -7.1412  -7.1003
    -7.0891  -7.0839  -7.0770  -7.0699  -7.0552  -7.0042  -7.0020  -6.9782
    -6.9431  -6.9402  -6.9351  -6.9308  -6.9223  -6.9139  -6.9083  -6.8908
    -6.8891  -6.8563  -6.8549  -6.8412  -6.8280  -6.8197  -6.8029  -6.7941
    -6.7886  -6.7812  -6.7771  -6.7688  -6.7606  -6.7544  -6.7451  -6.7419
    -6.7364  -6.7290  -6.7079  -6.7007  -6.6972  -6.6858  -6.6757  -6.6482
    -6.6355  -6.6075  -6.5631  -6.5553  -6.5192  -6.5022  -6.4795  -6.4734
    -6.4298  -6.4139  -6.4077  -6.4012  -6.3955  -6.3913  -6.3870  -6.3816
    -6.3604  -6.3358  -6.3234  -6.2991  -6.2865  -6.2409  -6.2359  -6.2182
    -6.2124  -6.1958  -6.1881  -6.1799  -6.1734  -6.1684  -6.1646  -6.1585
    -6.1419  -6.1373  -6.1298  -6.1283  -6.1120  -6.1079  -6.0920  -6.0793
    -6.0648  -6.0576  -6.0513  -6.0440  -6.0391  -6.0335  -6.0303  -6.0247
    -6.0209  -6.0147  -6.0051  -6.0034  -5.9542  -5.9471  -5.9345  -5.9242
    -5.8880  -5.8858  -5.8593  -5.8315  -5.8290  -5.8148  -5.8055  -5.7863
    -5.7844  -5.7781  -5.7714  -5.7639  -5.7541  -5.7287  -5.7250  -5.7091
    -5.6912  -5.6633  -5.6496  -5.6422  -5.6216  -5.6117  -5.6070  -5.5918
    -5.5706  -5.5427  -5.5297  -5.5134  -5.4999  -5.4851  -5.4587  -5.4356
    -5.4186  -5.4143  -5.3991  -5.3799  -5.3707  -5.3563  -5.3503  -5.3349
    -5.3166  -5.2846  -5.2761  -5.2713  -5.2522  -5.2382  -5.2296  -5.2066
    -5.1989  -5.1879  -5.1387  -5.1295  -5.1269  -5.1040  -5.0824  -5.0667
    -5.0461  -5.0444  -5.0225  -5.0135  -4.9932  -4.9673  -4.9447  -4.8606
    -4.8384  -4.8061  -4.7615  -4.7596  -4.7537  -4.7512  -4.7481  -4.7396
    -4.6778  -4.6543  -4.6367  -4.6362  -4.5996  -4.5983  -4.5872  -4.5811
    -4.5418  -4.5386  -4.4531  -4.4371  -4.4133  -4.4031  -4.2437  -4.2279
    -4.0959  -4.0895  -3.9189  -3.9173  -3.8009  -3.7661  -3.7534  -3.7530
    -3.6050  -3.6038  -3.6005  -3.5969  -3.5891  -2.6624  -2.6554  -2.2622
    -2.2295  -2.2196  -2.2064  -2.1971  -2.1857  -2.1803  -2.1475  -2.1445
    -2.1369  -2.0770  -2.0633  -1.9890  -1.9808  -1.9435  -1.9258  -1.9190
    -1.9154  -1.9002  -1.8927  -1.8753  -1.8528  -1.8427  -1.8289  -1.8058
    -1.7914  -1.7801  -1.7632  -1.7470  -1.7143  -1.6333  -1.6256  -1.5524
    -1.5498  -1.5408  -1.5348  -1.3923  -1.3568  -1.2369  -1.2328  -1.1927
    -1.1919  -1.1543  -1.0078  -0.9993  -0.9928  -0.9542  -0.9256  -0.8886
    -0.8706  -0.8301  -0.8287  -0.7763  -0.7760  -0.4285  -0.4108  -0.3989
    -0.3933  -0.3836  -0.3613  -0.3437  -0.3351  -0.3299  -0.3229  -0.3064
    -0.3044  -0.3032  -0.3017  -0.3010  -0.2449  -0.2363  -0.1323  -0.1313
     0.1242   0.1244   0.4760   0.4767   0.4796   0.4806   0.6156   0.6359
     0.6768   0.9023   0.9751   1.0049   1.0159   1.0172   1.0196   1.0218
     1.0228   1.0379   1.0772   1.1110   1.1355   1.2148   1.2555   1.3256
     1.3271   1.4231   1.4489   1.4909   1.5380   1.5584   1.5612   1.5661
     1.6252   1.6712

     occupation numbers 
     1.0000   1.0000   1.0000   1.0000   1.0000   1.0000   1.0000   1.0000
     1.0000   1.0000   1.0000   1.0000   1.0000   1.0000   1.0000   1.0000
     1.0000   1.0000   1.0000   1.0000   1.0000   1.0000   1.0000   1.0000
     1.0000   1.0000   1.0000   1.0000   1.0000   1.0000   1.0000   1.0000
     1.0000   1.0000   1.0000   1.0000   1.0000   1.0000   1.0000   1.0000
     1.0000   1.0000   1.0000   1.0000   1.0000   1.0000   1.0000   1.0000
     1.0000   1.0000   1.0000   1.0000   1.0000   1.0000   1.0000   1.0000
     1.0000   1.0000   1.0000   1.0000   1.0000   1.0000   1.0000   1.0000
     1.0000   1.0000   1.0000   1.0000   1.0000   1.0000   1.0000   1.0000
     1.0000   1.0000   1.0000   1.0000   1.0000   1.0000   1.0000   1.0000
     1.0000   1.0000   1.0000   1.0000   1.0000   1.0000   1.0000   1.0000
     1.0000   1.0000   1.0000   1.0000   1.0000   1.0000   1.0000   1.0000
     1.0000   1.0000   1.0000   1.0000   1.0000   1.0000   1.0000   1.0000
     1.0000   1.0000   1.0000   1.0000   1.0000   1.0000   1.0000   1.0000
     1.0000   1.0000   1.0000   1.0000   1.0000   1.0000   1.0000   1.0000
     1.0000   1.0000   1.0000   1.0000   1.0000   1.0000   1.0000   1.0000
     1.0000   1.0000   1.0000   1.0000   1.0000   1.0000   1.0000   1.0000
     1.0000   1.0000   1.0000   1.0000   1.0000   1.0000   1.0000   1.0000
     1.0000   1.0000   1.0000   1.0000   1.0000   1.0000   1.0000   1.0000
     1.0000   1.0000   1.0000   1.0000   1.0000   1.0000   1.0000   1.0000
     1.0000   1.0000   1.0000   1.0000   1.0000   1.0000   1.0000   1.0000
     1.0000   1.0000   1.0000   1.0000   1.0000   1.0000   1.0000   1.0000
     1.0000   1.0000   1.0000   1.0000   1.0000   1.0000   1.0000   1.0000
     1.0000   1.0000   1.0000   1.0000   1.0000   1.0000   1.0000   1.0000
     1.0000   1.0000   1.0000   1.0000   1.0000   1.0000   1.0000   1.0000
     1.0000   1.0000   1.0000   1.0000   1.0000   1.0000   1.0000   1.0000
     1.0000   1.0000   1.0000   1.0000   1.0000   1.0000   1.0000   1.0000
     1.0000   1.0000   1.0000   1.0000   1.0000   1.0000   1.0000   1.0000
     1.0000   1.0000   1.0000   1.0000   1.0000   1.0000   1.0000   1.0000
     1.0000   1.0000   1.0000   1.0000   1.0000   1.0000   1.0000   1.0000
     1.0000   1.0000   1.0000   1.0000   1.0000   1.0000   1.0000   1.0000
     1.0000   1.0000   1.0000   1.0000   1.0000   1.0000   1.0000   1.0000
     1.0000   1.0000   1.0000   1.0000   1.0000   1.0000   1.0000   1.0000
     1.0000   1.0000   1.0000   1.0000   1.0000   1.0000   1.0000   1.0000
     1.0000   1.0000   1.0000   1.0000   1.0000   1.0000   1.0000   1.0000
     1.0000   1.0000   1.0000   1.0000   1.0000   1.0000   1.0000   1.0000
     1.0000   1.0000   1.0000   1.0000   1.0000   1.0000   1.0000   1.0000
     1.0000   1.0000   1.0000   1.0000   1.0000   1.0000   1.0000   1.0000
     1.0000   1.0000   1.0000   1.0000   1.0000   1.0000   1.0000   1.0000
     1.0000   1.0000   1.0000   1.0000   1.0000   1.0000   1.0000   1.0000
     1.0000   1.0000   1.0000   1.0000   1.0000   1.0000   1.0000   1.0000
     1.0000   1.0000   1.0000   1.0000   1.0000   1.0000   1.0000   1.0000
     1.0000   1.0000   1.0000   1.0000   1.0000   1.0000   1.0000   1.0000
     1.0000   1.0000   1.0000   1.0000   1.0000   1.0000   1.0000   1.0000
     1.0000   1.0000   1.0000   1.0000   1.0000   1.0000   1.0000   1.0000
     1.0000   1.0000   1.0000   1.0000   1.0000   1.0000   1.0000   1.0000
     1.0000   1.0000   1.0000   1.0000   1.0000   1.0000   1.0000   1.0000
     1.0000   1.0000   1.0000   1.0000   1.0000   1.0000   1.0000   1.0000
     1.0000   1.0000   1.0000   1.0000   1.0000   1.0000   1.0000   1.0000
     1.0000   1.0000   1.0000   1.0000   1.0000   1.0000   1.0000   1.0000
     1.0000   1.0000   1.0000   1.0000   1.0000   1.0000   1.0000   1.0000
     1.0000   1.0000   1.0000   1.0000   1.0000   1.0000   1.0000   1.0000
     1.0000   1.0000   1.0000   1.0000   1.0000   1.0000   1.0000   1.0000
     1.0000   1.0000   1.0000   1.0000   1.0000   1.0000   1.0000   1.0000
     1.0000   1.0000   1.0000   1.0000   1.0000   1.0000   1.0000   1.0000
     1.0000   1.0000   1.0000   1.0000   1.0000   1.0000   1.0000   1.0000
     1.0000   1.0000   1.0000   1.0000   1.0000   1.0000   1.0000   1.0000
     1.0000   1.0000   1.0000   1.0000   1.0000   1.0000   1.0000   1.0000
     1.0000   1.0000   1.0000   1.0000   1.0000   1.0000   1.0000   1.0000
     1.0000   1.0000   1.0000   1.0001   1.0001   1.0001   1.0001   1.0002
     1.0002   1.0004   1.0005   1.0006   1.0008   1.0010   1.0012   1.0017
     1.0019   1.0023   1.0048   1.0054   1.0056   1.0076   1.0100   1.0121
     1.0154   1.0157   1.0199   1.0219   1.0267   1.0339   1.0408   1.0691
     1.0754   1.0818   1.0815   1.0812   1.0800   1.0794   1.0786   1.0759
     1.0338   1.0061   0.9809   0.9801   0.9153   0.9128   0.8898   0.8768
     0.7839   0.7757   0.5438   0.5002   0.4369   0.4107   0.1132   0.0962
     0.0195   0.0178   0.0011   0.0011   0.0001   0.0000   0.0000   0.0000
     0.0000   0.0000   0.0000   0.0000   0.0000   0.0000   0.0000   0.0000
     0.0000   0.0000   0.0000   0.0000   0.0000   0.0000   0.0000   0.0000
     0.0000   0.0000   0.0000   0.0000   0.0000   0.0000   0.0000   0.0000
     0.0000   0.0000   0.0000   0.0000   0.0000   0.0000   0.0000   0.0000
     0.0000   0.0000   0.0000   0.0000   0.0000   0.0000   0.0000   0.0000
     0.0000   0.0000   0.0000   0.0000   0.0000   0.0000   0.0000   0.0000
     0.0000   0.0000   0.0000   0.0000   0.0000   0.0000   0.0000   0.0000
     0.0000   0.0000   0.0000   0.0000   0.0000   0.0000   0.0000   0.0000
     0.0000   0.0000   0.0000   0.0000   0.0000   0.0000   0.0000   0.0000
     0.0000   0.0000   0.0000   0.0000   0.0000   0.0000   0.0000   0.0000
     0.0000   0.0000   0.0000   0.0000   0.0000   0.0000   0.0000   0.0000
     0.0000   0.0000   0.0000   0.0000   0.0000   0.0000   0.0000   0.0000
     0.0000   0.0000   0.0000   0.0000   0.0000   0.0000   0.0000   0.0000
     0.0000   0.0000   0.0000   0.0000   0.0000   0.0000   0.0000   0.0000
     0.0000   0.0000

     the Fermi energy is    -4.3991 ev

!    total energy              =  -12271.35472897 Ry
     estimated scf accuracy    <          7.1E-09 Ry
     smearing contrib. (-TS)   =       0.03504522 Ry
     internal energy E=F+TS    =  -12271.38977419 Ry

     The total energy is F=E-TS. E is the sum of the following terms:
     one-electron contribution = -290492.66065537 Ry
     hartree contribution      =  145421.32588288 Ry
     xc contribution           =   -2170.33774983 Ry
     ewald contribution        =  140950.85092726 Ry
     DFT-D3 Dispersion         =      -2.97244512 Ry
     one-center paw contrib.   =   -5977.59573402 Ry
      -> PAW hartree energy AE =       2.28963853 Ry
      -> PAW hartree energy PS =      -2.28639684 Ry
      -> PAW xc energy AE      =     -36.95008649 Ry
      -> PAW xc energy PS      =       2.29122970 Ry
      -> total E_H with PAW    =  145421.32912456 Ry
      -> total E_XC with PAW   =   -2204.99660662 Ry

     total magnetization       =     0.00 Bohr mag/cell
     absolute magnetization    =     0.00 Bohr mag/cell

     convergence has been achieved in  32 iterations

     negative rho (up, down):  5.312E-03 5.312E-03

     Forces acting on atoms (cartesian axes, Ry/au):

     atom    1 type  1   force =    -0.00000118   -0.00000254   -0.07860175
     atom    2 type  1   force =    -0.00043847   -0.00091662   -0.00594160
     atom    3 type  1   force =    -0.00061453   -0.00029985   -0.01249509
     atom    4 type  1   force =    -0.00336230   -0.00148122   -0.00541598
     atom    5 type  1   force =     0.00000359   -0.00002093    0.00337767
     atom    6 type  1   force =     0.00006942    0.00006037    0.25187379
     atom    7 type  2   force =     0.07202271    0.02065561   -0.05418997
     atom    8 type  2   force =    -0.05389883    0.05204651   -0.05418938
     atom    9 type  2   force =    -0.01812309   -0.07270108   -0.05419099
     atom   10 type  2   force =    -0.00284366   -0.00013476   -0.00013604
     atom   11 type  2   force =    -0.00113164   -0.00120672   -0.00252554
     atom   12 type  2   force =     0.00359105    0.00172492    0.00072984
     atom   13 type  2   force =    -0.00078697    0.00001902    0.00326852
     atom   14 type  2   force =     0.00048387    0.00040608    0.00326721
     atom   15 type  2   force =     0.00041569    0.00067714    0.00326846
     atom   16 type  1   force =     0.00097718    0.00129628   -0.07731940
     atom   17 type  1   force =     0.00369688    0.00204232   -0.00537035
     atom   18 type  1   force =     0.00027867   -0.00002156   -0.01334199
     atom   19 type  1   force =     0.00019240   -0.00105382   -0.00687192
     atom   20 type  1   force =     0.00527704    0.00864066    0.01475986
     atom   21 type  1   force =     0.00015050    0.00014516    0.25172547
     atom   22 type  2   force =     0.07195926    0.02043737   -0.05442865
     atom   23 type  2   force =    -0.05412082    0.05183993   -0.05463919
     atom   24 type  2   force =    -0.01817505   -0.07270726   -0.05416171
     atom   25 type  2   force =    -0.00758149    0.00228560   -0.00391419
     atom   26 type  2   force =    -0.00389339   -0.00266008    0.00150026
     atom   27 type  2   force =     0.00104518   -0.00262130   -0.00087251
     atom   28 type  2   force =    -0.00083321   -0.00141822    0.00309365
     atom   29 type  2   force =     0.00030375   -0.00058215    0.00374103
     atom   30 type  2   force =    -0.00108525   -0.00038002    0.00323051
     atom   31 type  1   force =     0.00134032    0.00001946   -0.07737994
     atom   32 type  1   force =     0.00099079    0.00009590   -0.00594067
     atom   33 type  1   force =    -0.00012370    0.00025266   -0.01334863
     atom   34 type  1   force =     0.00079245    0.00069197   -0.00688002
     atom   35 type  1   force =     0.00587009    0.00082206    0.01436370
     atom   36 type  1   force =    -0.00008804    0.00003026    0.25187541
     atom   37 type  2   force =     0.07177300    0.02079448   -0.05470489
     atom   38 type  2   force =    -0.05393227    0.05208392   -0.05432935
     atom   39 type  2   force =    -0.01828677   -0.07278189   -0.05420351
     atom   40 type  2   force =    -0.00327951    0.00223268    0.00074076
     atom   41 type  2   force =     0.00154737   -0.00239611   -0.00013263
     atom   42 type  2   force =     0.00162105   -0.00038656   -0.00251875
     atom   43 type  2   force =    -0.00200289   -0.00049144    0.00171452
     atom   44 type  2   force =     0.00165062   -0.00001717    0.00308556
     atom   45 type  2   force =    -0.00058832    0.00021250    0.00327535
     atom   46 type  1   force =     0.00063742   -0.00150132   -0.07730925
     atom   47 type  1   force =    -0.00057535    0.00081009   -0.00594394
     atom   48 type  1   force =     0.00056642   -0.00037888   -0.01249813
     atom   49 type  1   force =     0.00297017   -0.00215941   -0.00542031
     atom   50 type  1   force =     0.00487239   -0.00892063    0.01478205
     atom   51 type  1   force =     0.00001849   -0.00009152    0.25187394
     atom   52 type  2   force =     0.07195430    0.02095133   -0.05464246
     atom   53 type  2   force =    -0.05388018    0.05209435   -0.05416336
     atom   54 type  2   force =    -0.01828019   -0.07253782   -0.05443198
     atom   55 type  2   force =    -0.00049078    0.00159674   -0.00252270
     atom   56 type  2   force =    -0.00030711   -0.00396433    0.00073039
     atom   57 type  2   force =     0.00129585    0.00253812   -0.00012530
     atom   58 type  2   force =    -0.00121369    0.00176729    0.00009035
     atom   59 type  2   force =     0.00037515   -0.00068986    0.00327223
     atom   60 type  2   force =    -0.00081372    0.00143673    0.00308652
     atom   61 type  1   force =    -0.00068246    0.00115074   -0.07738014
     atom   62 type  1   force =    -0.00103163    0.00385404   -0.00119083
     atom   63 type  1   force =     0.00004749    0.00067896   -0.01250326
     atom   64 type  1   force =     0.00039977    0.00364687   -0.00544259
     atom   65 type  1   force =    -0.00362552    0.00467587    0.01439561
     atom   66 type  1   force =     0.00004400    0.00024598    0.25115181
     atom   67 type  2   force =     0.07217446    0.02055489   -0.05420482
     atom   68 type  2   force =    -0.05389652    0.05175852   -0.05470551
     atom   69 type  2   force =    -0.01814161   -0.07274792   -0.05432801
     atom   70 type  2   force =    -0.00322724    0.00523267   -0.01189737
     atom   71 type  2   force =    -0.00547131   -0.00863631   -0.00736137
     atom   72 type  2   force =     0.00627717   -0.00520903   -0.00359619
     atom   73 type  2   force =     0.00010499   -0.00061651    0.00327565
     atom   74 type  2   force =    -0.00092456   -0.00193314    0.00010662
     atom   75 type  2   force =     0.00047061   -0.00100147    0.00140374
     atom   76 type  1   force =     0.00000313    0.00000646   -0.07417992
     atom   77 type  1   force =     0.00386662   -0.00101276   -0.00116835
     atom   78 type  1   force =     0.00082926    0.00054948   -0.01038432
     atom   79 type  1   force =     0.00414487    0.00088205   -0.00229840
     atom   80 type  1   force =     0.00000599    0.00003542    0.03134491
     atom   81 type  1   force =     0.00019163   -0.00016002    0.25115026
     atom   82 type  2   force =     0.07209605    0.02091179   -0.05519930
     atom   83 type  2   force =    -0.05415990    0.05197878   -0.05520119
     atom   84 type  2   force =    -0.01793799   -0.07289315   -0.05519830
     atom   85 type  2   force =    -0.00474276    0.00903647   -0.00736772
     atom   86 type  2   force =    -0.00763922   -0.00282139   -0.00357511
     atom   87 type  2   force =     0.00611823    0.00016174   -0.01185675
     atom   88 type  2   force =     0.00022409   -0.00036291   -0.00056850
     atom   89 type  2   force =    -0.00110623    0.00008836    0.00139739
     atom   90 type  2   force =    -0.00042781   -0.00002448   -0.00056933
     atom   91 type  1   force =    -0.00065918   -0.00116983   -0.07736568
     atom   92 type  1   force =    -0.00007316   -0.00423246   -0.00533898
     atom   93 type  1   force =     0.00005973   -0.00098872   -0.01036941
     atom   94 type  1   force =    -0.00130885   -0.00402593   -0.00226409
     atom   95 type  1   force =    -0.00225725   -0.00550015    0.01442057
     atom   96 type  1   force =     0.00005189   -0.00020422    0.25172209
     atom   97 type  2   force =     0.07207329    0.02066493   -0.05433103
     atom   98 type  2   force =    -0.05388892    0.05222770   -0.05420691
     atom   99 type  2   force =    -0.01787594   -0.07255522   -0.05470957
     atom  100 type  2   force =    -0.00035464    0.00472014    0.00147964
     atom  101 type  2   force =    -0.00280592    0.00042038   -0.00088007
     atom  102 type  2   force =     0.00575021    0.00541812   -0.00390264
     atom  103 type  2   force =     0.00063803    0.00091035    0.00139094
     atom  104 type  2   force =     0.00020252    0.00113481    0.00322249
     atom  105 type  2   force =     0.00057716    0.00197940    0.00169742
     atom  106 type  1   force =    -0.00000206   -0.00000511   -0.07934470
     atom  107 type  1   force =    -0.00361777    0.00216893   -0.00536801
     atom  108 type  1   force =    -0.00015300   -0.00023227   -0.01334334
     atom  109 type  1   force =    -0.00097680    0.00034875   -0.00687378
     atom  110 type  1   force =    -0.00000881   -0.00002744    0.00158494
     atom  111 type  1   force =    -0.00020096    0.00005577    0.25172544
     atom  112 type  2   force =     0.07195021    0.02046140   -0.05388348
     atom  113 type  2   force =    -0.05369446    0.05208007   -0.05388321
     atom  114 type  2   force =    -0.01825609   -0.07253932   -0.05388284
     atom  115 type  2   force =     0.00176215    0.00222078   -0.00087855
     atom  116 type  2   force =     0.00181324   -0.00769612   -0.00388801
     atom  117 type  2   force =     0.00425335   -0.00203815    0.00149076
     atom  118 type  2   force =    -0.00065518    0.00003877    0.00373051
     atom  119 type  2   force =     0.00142574   -0.00148843    0.00171510
     atom  120 type  2   force =     0.00035257    0.00055824    0.00373394
     atom  121 type  1   force =    -0.00161497    0.00020402   -0.07731539
     atom  122 type  1   force =    -0.00282463   -0.00280863   -0.00116107
     atom  123 type  1   force =    -0.00088834    0.00044757   -0.01038160
     atom  124 type  1   force =    -0.00283976    0.00316674   -0.00229487
     atom  125 type  1   force =    -0.01013361    0.00027627    0.01474231
     atom  126 type  1   force =    -0.00023507   -0.00008543    0.25114950
     atom  127 type  2   force =     0.07205551    0.02061264   -0.05416179
     atom  128 type  2   force =    -0.05367931    0.05209811   -0.05443129
     atom  129 type  2   force =    -0.01783441   -0.07278893   -0.05463938
     atom  130 type  2   force =     0.00138453    0.00800864   -0.00357933
     atom  131 type  2   force =    -0.00290171   -0.00539563   -0.01183839
     atom  132 type  2   force =     0.01020609   -0.00043966   -0.00736452
     atom  133 type  2   force =     0.00087600   -0.00074921    0.00323146
     atom  134 type  2   force =     0.00019757    0.00037021   -0.00057947
     atom  135 type  2   force =     0.00213747    0.00015866    0.00009850
     atom  136 type  3   force =    -0.00000109    0.00001580   -0.00256283
     atom  137 type  4   force =    -0.00019411    0.00118897    0.00114275
     atom  138 type  4   force =     0.00008678    0.00103831    0.00255797
     atom  139 type  3   force =     0.00112002   -0.00275960   -0.00279596
     atom  140 type  4   force =    -0.00069464    0.00022133   -0.00034567
     atom  141 type  4   force =    -0.00029460    0.00067156    0.00158411
     atom  142 type  3   force =    -0.00077998   -0.00052049   -0.00286862
     atom  143 type  4   force =     0.00034970   -0.00049505   -0.00092289
     atom  144 type  4   force =     0.00033639   -0.00055174    0.00173580
     atom  145 type  3   force =    -0.00166103    0.00237458   -0.00206784
     atom  146 type  4   force =     0.00095131   -0.00019922    0.00114535
     atom  147 type  4   force =     0.00107414   -0.00061866    0.00235845
     atom  148 type  3   force =    -0.00294414    0.00042857   -0.00280374
     atom  149 type  4   force =     0.00090570    0.00013604    0.00167279
     atom  150 type  4   force =     0.00083923    0.00037543    0.00278077
     atom  151 type  3   force =    -0.00117179   -0.00260729   -0.00206260
     atom  152 type  4   force =     0.00027417    0.00037520   -0.00079401
     atom  153 type  4   force =     0.00031185    0.00054804    0.00180626
     atom  154 type  3   force =     0.00002254   -0.00217516   -0.00271586
     atom  155 type  4   force =     0.00005862    0.00016838   -0.00253088
     atom  156 type  4   force =     0.00004408    0.00017649    0.00034973
     atom  157 type  3   force =    -0.00186934    0.00106472   -0.00274417
     atom  158 type  4   force =     0.00041643    0.00055537   -0.00038530
     atom  159 type  4   force =     0.00082350   -0.00043434    0.00129377
     atom  160 type  3   force =    -0.00005163    0.00095353   -0.00290099
     atom  161 type  4   force =    -0.00045963    0.00015835    0.00188022
     atom  162 type  4   force =    -0.00005550    0.00006584    0.00227861
     atom  163 type  3   force =    -0.00052674   -0.00051987   -0.00402595
     atom  164 type  4   force =     0.00048743    0.00036835    0.00177745
     atom  165 type  4   force =     0.00023698   -0.00023651    0.00237627
     atom  166 type  3   force =     0.00082380   -0.00046198   -0.00285832
     atom  167 type  4   force =     0.00012765   -0.00039505   -0.00051286
     atom  168 type  4   force =    -0.00060999   -0.00036655    0.00136550
     atom  169 type  3   force =     0.00184934    0.00108875   -0.00274421
     atom  170 type  4   force =    -0.00059132    0.00008604   -0.00092458
     atom  171 type  4   force =    -0.00062833   -0.00046146    0.00166728
     atom  172 type  3   force =     0.00284530    0.00033434   -0.00207189
     atom  173 type  4   force =    -0.00041847    0.00077327    0.00171680
     atom  174 type  4   force =    -0.00088910    0.00043833    0.00266957
     atom  175 type  3   force =     0.00068698   -0.00027476   -0.00403098
     atom  176 type  4   force =     0.00004505   -0.00020688    0.00170208
     atom  177 type  4   force =    -0.00020299   -0.00009517    0.00240942
     atom  178 type  3   force =    -0.00016800    0.00068365   -0.00407403
     atom  179 type  4   force =    -0.00053245   -0.00068208    0.00158310
     atom  180 type  4   force =     0.00006386   -0.00117519    0.00274071
     atom  181 type  3   force =     0.00183428    0.00237165   -0.00280969
     atom  182 type  4   force =    -0.00068363   -0.00061210    0.00118563
     atom  183 type  4   force =    -0.00118742   -0.00080474    0.00242559
     The non-local contrib.  to forces
     atom    1 type  1   force =     0.00000158    0.00000069   -0.06863206
     atom    2 type  1   force =    -0.00004256    0.00047833   -0.04611524
     atom    3 type  1   force =     0.00028032    0.00008980    0.07679930
     atom    4 type  1   force =     0.00163190    0.00132533   -0.07802284
     atom    5 type  1   force =    -0.00000495    0.00000773    0.09416268
     atom    6 type  1   force =     0.00011143    0.00016820   -0.19603468
     atom    7 type  2   force =     0.58421352    0.08942991    0.01663769
     atom    8 type  2   force =    -0.36955363    0.46124289    0.01664446
     atom    9 type  2   force =    -0.21466039   -0.55065914    0.01663315
     atom   10 type  2   force =     0.47452364   -0.42425883   -0.67481396
     atom   11 type  2   force =     0.11902428    0.62031507   -0.67758763
     atom   12 type  2   force =    -0.59220592   -0.19762274   -0.67233510
     atom   13 type  2   force =     0.10160092    0.13200755    0.05320478
     atom   14 type  2   force =    -0.16429460    0.02768577    0.05297264
     atom   15 type  2   force =     0.06354759   -0.15397238    0.05319953
     atom   16 type  1   force =    -0.00058835   -0.00087041   -0.06886017
     atom   17 type  1   force =    -0.00207730   -0.00065330   -0.04668231
     atom   18 type  1   force =    -0.00015561   -0.00003355    0.07704425
     atom   19 type  1   force =     0.00019869    0.00051686   -0.07714031
     atom   20 type  1   force =    -0.00067839   -0.00153436    0.08957568
     atom   21 type  1   force =    -0.00027696    0.00000715   -0.19587567
     atom   22 type  2   force =     0.58331950    0.08687066    0.01538121
     atom   23 type  2   force =    -0.37098201    0.45964394    0.01408951
     atom   24 type  2   force =    -0.21530139   -0.55126663    0.01693302
     atom   25 type  2   force =     0.45058794   -0.41592732   -0.69702224
     atom   26 type  2   force =     0.10885289    0.61530107   -0.66669752
     atom   27 type  2   force =    -0.60517268   -0.21241712   -0.67494700
     atom   28 type  2   force =     0.10142847    0.12427878    0.05151365
     atom   29 type  2   force =    -0.16615660    0.02260005    0.05537710
     atom   30 type  2   force =     0.05596867   -0.15913904    0.05299101
     atom   31 type  1   force =    -0.00053361    0.00003731   -0.06887003
     atom   32 type  1   force =    -0.00038604   -0.00028235   -0.04611564
     atom   33 type  1   force =     0.00010929   -0.00011694    0.07704691
     atom   34 type  1   force =    -0.00053326   -0.00008448   -0.07713709
     atom   35 type  1   force =    -0.00194709   -0.00042040    0.09011837
     atom   36 type  1   force =    -0.00020090    0.00001046   -0.19603558
     atom   37 type  2   force =     0.57979675    0.08854495    0.01295633
     atom   38 type  2   force =    -0.37177970    0.46203324    0.01646587
     atom   39 type  2   force =    -0.21689106   -0.55171336    0.01699318
     atom   40 type  2   force =     0.46729965   -0.41412180   -0.67227197
     atom   41 type  2   force =     0.13024067    0.62309399   -0.67488099
     atom   42 type  2   force =    -0.59666747   -0.20712017   -0.67754772
     atom   43 type  2   force =     0.09522844    0.12783994    0.04484882
     atom   44 type  2   force =    -0.15831247    0.02567980    0.05146973
     atom   45 type  2   force =     0.05820326   -0.15614589    0.05301791
     atom   46 type  1   force =    -0.00046042    0.00094702   -0.06886326
     atom   47 type  1   force =     0.00043427   -0.00019390   -0.04611490
     atom   48 type  1   force =    -0.00021594    0.00019740    0.07680040
     atom   49 type  1   force =    -0.00196807    0.00074840   -0.07802203
     atom   50 type  1   force =    -0.00099814    0.00136489    0.08960855
     atom   51 type  1   force =     0.00009003   -0.00018025   -0.19603487
     atom   52 type  2   force =     0.58353749    0.09146095    0.01406496
     atom   53 type  2   force =    -0.36976844    0.46210934    0.01693343
     atom   54 type  2   force =    -0.21643336   -0.54859664    0.01536349
     atom   55 type  2   force =     0.47762246   -0.41314955   -0.67752520
     atom   56 type  2   force =     0.12491239    0.61171672   -0.67229535
     atom   57 type  2   force =    -0.60475126   -0.19875511   -0.67484633
     atom   58 type  2   force =     0.09970351    0.13860861    0.03820869
     atom   59 type  2   force =    -0.16513750    0.02199422    0.05321939
     atom   60 type  2   force =     0.05689846   -0.14994645    0.05147390
     atom   61 type  1   force =     0.00023243   -0.00048022   -0.06886936
     atom   62 type  1   force =    -0.00009547   -0.00167957   -0.04810364
     atom   63 type  1   force =    -0.00006239   -0.00028418    0.07680244
     atom   64 type  1   force =     0.00033173   -0.00207421   -0.07802002
     atom   65 type  1   force =     0.00133532   -0.00147618    0.09009650
     atom   66 type  1   force =     0.00005876   -0.00029623   -0.19512990
     atom   67 type  2   force =     0.58624110    0.08802623    0.01699003
     atom   68 type  2   force =    -0.36658441    0.45784201    0.01295638
     atom   69 type  2   force =    -0.21424858   -0.55298561    0.01647268
     atom   70 type  2   force =     0.47218699   -0.40414114   -0.72860507
     atom   71 type  2   force =     0.10159633    0.59074037   -0.71391924
     atom   72 type  2   force =    -0.58424992   -0.22838551   -0.69560772
     atom   73 type  2   force =     0.10609835    0.12847443    0.05301681
     atom   74 type  2   force =    -0.16990791    0.01704786    0.03828549
     atom   75 type  2   force =     0.06279467   -0.16217407    0.04465430
     atom   76 type  1   force =    -0.00000203   -0.00000289   -0.06962726
     atom   77 type  1   force =    -0.00141385    0.00091270   -0.04810894
     atom   78 type  1   force =    -0.00035202   -0.00024782    0.07601770
     atom   79 type  1   force =    -0.00189138   -0.00079183   -0.07887429
     atom   80 type  1   force =     0.00000065   -0.00000952    0.07806953
     atom   81 type  1   force =    -0.00028503    0.00009623   -0.19512714
     atom   82 type  2   force =     0.58395192    0.08863072    0.01189181
     atom   83 type  2   force =    -0.36873710    0.46137964    0.01187928
     atom   84 type  2   force =    -0.21521203   -0.55004450    0.01189710
     atom   85 type  2   force =     0.46083544   -0.38347773   -0.71407198
     atom   86 type  2   force =     0.09435556    0.62024098   -0.69561052
     atom   87 type  2   force =    -0.58621892   -0.20693163   -0.72847196
     atom   88 type  2   force =     0.10627950    0.12699921    0.03443747
     atom   89 type  2   force =    -0.17186382    0.02668556    0.04462935
     atom   90 type  2   force =     0.05683997   -0.15560006    0.03443513
     atom   91 type  1   force =     0.00030243    0.00044274   -0.06887295
     atom   92 type  1   force =     0.00046895    0.00212741   -0.04668977
     atom   93 type  1   force =    -0.00003824    0.00042838    0.07601221
     atom   94 type  1   force =     0.00025987    0.00203432   -0.07888153
     atom   95 type  1   force =     0.00061626    0.00189982    0.09012024
     atom   96 type  1   force =     0.00014556    0.00023745   -0.19587177
     atom   97 type  2   force =     0.58602831    0.09094900    0.01645520
     atom   98 type  2   force =    -0.36934282    0.46369285    0.01697913
     atom   99 type  2   force =    -0.21320587   -0.54638833    0.01293245
     atom  100 type  2   force =     0.47849038   -0.40183003   -0.66686208
     atom  101 type  2   force =     0.11855101    0.63042966   -0.67507831
     atom  102 type  2   force =    -0.58561075   -0.18226045   -0.69706229
     atom  103 type  2   force =     0.10907504    0.13546529    0.04459229
     atom  104 type  2   force =    -0.16585195    0.03113193    0.05295230
     atom  105 type  2   force =     0.06309564   -0.14638571    0.04476388
     atom  106 type  1   force =     0.00000025    0.00000266   -0.06833393
     atom  107 type  1   force =     0.00160405   -0.00146690   -0.04668132
     atom  108 type  1   force =     0.00004634    0.00015486    0.07704488
     atom  109 type  1   force =     0.00033463   -0.00042223   -0.07714045
     atom  110 type  1   force =     0.00000787    0.00000914    0.09307373
     atom  111 type  1   force =     0.00013396   -0.00024505   -0.19587564
     atom  112 type  2   force =     0.58419202    0.08948133    0.01788051
     atom  113 type  2   force =    -0.36957611    0.46118852    0.01788330
     atom  114 type  2   force =    -0.21460556   -0.55064937    0.01787800
     atom  115 type  2   force =     0.48661797   -0.41785687   -0.67498625
     atom  116 type  2   force =     0.13494071    0.59823529   -0.69690834
     atom  117 type  2   force =    -0.58727811   -0.21337751   -0.66676374
     atom  118 type  2   force =     0.10265204    0.13263994    0.05533115
     atom  119 type  2   force =    -0.15833650    0.01855586    0.04485231
     atom  120 type  2   force =     0.06350730   -0.15516943    0.05534446
     atom  121 type  1   force =     0.00104915   -0.00007678   -0.06886155
     atom  122 type  1   force =     0.00150177    0.00075298   -0.04811130
     atom  123 type  1   force =     0.00039026   -0.00018123    0.07601694
     atom  124 type  1   force =     0.00163734   -0.00124857   -0.07887628
     atom  125 type  1   force =     0.00167593    0.00016974    0.08960171
     atom  126 type  1   force =     0.00022751    0.00019600   -0.19512639
     atom  127 type  2   force =     0.58507952    0.08916863    0.01693778
     atom  128 type  2   force =    -0.36687796    0.46171912    0.01536520
     atom  129 type  2   force =    -0.21256654   -0.55110457    0.01408292
     atom  130 type  2   force =     0.48999711   -0.39193018   -0.69562144
     atom  131 type  2   force =     0.11397743    0.61108591   -0.72850372
     atom  132 type  2   force =    -0.56245513   -0.20749421   -0.71400052
     atom  133 type  2   force =     0.10985329    0.12804130    0.05299468
     atom  134 type  2   force =    -0.16314677    0.02851650    0.03438499
     atom  135 type  2   force =     0.07019554   -0.15570339    0.03825024
     atom  136 type  3   force =     0.00005442    0.00002009    0.00869773
     atom  137 type  4   force =     0.00082249   -0.00014577   -0.28283020
     atom  138 type  4   force =    -0.00360511   -0.01151747    0.28697639
     atom  139 type  3   force =    -0.00096866   -0.00231138    0.00691506
     atom  140 type  4   force =    -0.00198098   -0.00353178   -0.28042087
     atom  141 type  4   force =    -0.00096765   -0.01267103    0.24638181
     atom  142 type  3   force =    -0.00351332   -0.00034158    0.00803847
     atom  143 type  4   force =    -0.00443609    0.00069790   -0.28485267
     atom  144 type  4   force =    -0.00454634    0.00293617    0.24193245
     atom  145 type  3   force =    -0.00180622   -0.00086741    0.00432362
     atom  146 type  4   force =    -0.00077724   -0.00016442   -0.28296266
     atom  147 type  4   force =    -0.00789970    0.00886835    0.28686621
     atom  148 type  3   force =    -0.00169141    0.00205935    0.00672199
     atom  149 type  4   force =    -0.00162849   -0.00007330   -0.28755979
     atom  150 type  4   force =    -0.00107161   -0.00660351    0.28702082
     atom  151 type  3   force =     0.00149341   -0.00119966    0.00438829
     atom  152 type  4   force =     0.00167785   -0.00442988   -0.28471180
     atom  153 type  4   force =    -0.00043732   -0.00553826    0.24193846
     atom  154 type  3   force =     0.00069209   -0.00279056    0.00782347
     atom  155 type  4   force =     0.00007190    0.00029495   -0.27958707
     atom  156 type  4   force =     0.00003052    0.00010813    0.20219199
     atom  157 type  3   force =    -0.00271517    0.00066634    0.00768797
     atom  158 type  4   force =    -0.00221123    0.00368549   -0.28052065
     atom  159 type  4   force =    -0.01025880    0.00659675    0.24614392
     atom  160 type  3   force =     0.00136823    0.00316858    0.00782557
     atom  161 type  4   force =    -0.00067541    0.00101620   -0.28958532
     atom  162 type  4   force =    -0.00090773    0.00232518    0.28811110
     atom  163 type  3   force =    -0.00083280    0.00012705    0.01339371
     atom  164 type  4   force =     0.00139372    0.00012944   -0.28961980
     atom  165 type  4   force =     0.00262362   -0.00082965    0.28817398
     atom  166 type  3   force =     0.00207768   -0.00281601    0.00815076
     atom  167 type  4   force =     0.00401097    0.00052662   -0.28067133
     atom  168 type  4   force =     0.01111396    0.00557416    0.24617275
     atom  169 type  3   force =     0.00206721    0.00191166    0.00766608
     atom  170 type  4   force =     0.00279211    0.00383296   -0.28476115
     atom  171 type  4   force =     0.00497265    0.00172533    0.24183093
     atom  172 type  3   force =     0.00034678    0.00186591    0.00420928
     atom  173 type  4   force =     0.00109818   -0.00123717   -0.28763523
     atom  174 type  4   force =     0.00607445    0.00234063    0.28699454
     atom  175 type  3   force =     0.00039372   -0.00068362    0.01341758
     atom  176 type  4   force =    -0.00061120   -0.00072721   -0.28960320
     atom  177 type  4   force =    -0.00174661   -0.00207780    0.28812140
     atom  178 type  3   force =     0.00050650    0.00078003    0.01308242
     atom  179 type  4   force =     0.00044661    0.00166550   -0.28767881
     atom  180 type  4   force =    -0.00495615    0.00368542    0.28710414
     atom  181 type  3   force =     0.00252411    0.00031590    0.00667938
     atom  182 type  4   force =     0.00008765    0.00107236   -0.28287111
     atom  183 type  4   force =     0.01148440    0.00215417    0.28697754
     The ionic contribution  to forces
     atom    1 type  1   force =    -0.00000977   -0.00027282  -33.94562532
     atom    2 type  1   force =     0.00840234   -0.00577949  -12.41095105
     atom    3 type  1   force =     0.00187087    0.00110575  -40.17274171
     atom    4 type  1   force =     0.00221422    0.00133607   -8.44448961
     atom    5 type  1   force =     0.00005590   -0.00130172    3.56757486
     atom    6 type  1   force =     0.00071512   -0.00056835  -57.85503353
     atom    7 type  2   force =     0.21493288    0.12012027  -99.26191777
     atom    8 type  2   force =    -0.21173417    0.12551178  -99.26214849
     atom    9 type  2   force =    -0.00323526   -0.24636828  -99.26179961
     atom   10 type  2   force =    -0.44292738    0.11921798    5.61679565
     atom   11 type  2   force =     0.08523687   -0.38026069    5.52478413
     atom   12 type  2   force =     0.35720043    0.25125883    5.65843606
     atom   13 type  2   force =    -1.26523808   -0.37909824  -47.89766944
     atom   14 type  2   force =     0.96962621   -0.90380968  -47.90963951
     atom   15 type  2   force =     0.30422769    1.28438229  -47.89787245
     atom   16 type  1   force =     0.00078088   -0.00253712  -33.95166611
     atom   17 type  1   force =     0.00251454    0.00167670  -12.42980965
     atom   18 type  1   force =     0.00116697   -0.00096701  -40.17563222
     atom   19 type  1   force =     0.00081472   -0.00086829   -8.44647492
     atom   20 type  1   force =    -0.02609525   -0.05746743    3.48744204
     atom   21 type  1   force =    -0.00000756    0.00004808  -57.85661710
     atom   22 type  2   force =     0.21718642    0.11723138  -99.26658787
     atom   23 type  2   force =    -0.21244505    0.12646930  -99.26847152
     atom   24 type  2   force =    -0.00241827   -0.25008341  -99.26597725
     atom   25 type  2   force =    -0.42576089    0.19937266    5.60051014
     atom   26 type  2   force =     0.02242824   -0.36805331    5.63153325
     atom   27 type  2   force =     0.34886676    0.14912791    5.54310394
     atom   28 type  2   force =    -1.25741236   -0.39335691  -47.90502252
     atom   29 type  2   force =     0.96118105   -0.89687173  -47.91671595
     atom   30 type  2   force =     0.30077347    1.27853128  -47.91431197
     atom   31 type  1   force =    -0.00157941    0.00229218  -33.95102506
     atom   32 type  1   force =    -0.00024357    0.01027806  -12.41032444
     atom   33 type  1   force =    -0.00001415    0.00164575  -40.17560812
     atom   34 type  1   force =    -0.00058822    0.00168179   -8.44634181
     atom   35 type  1   force =    -0.05408981    0.00890990    3.49235720
     atom   36 type  1   force =    -0.00000256    0.00091121  -57.85494675
     atom   37 type  2   force =     0.21502730    0.12187854  -99.26775753
     atom   38 type  2   force =    -0.21419637    0.13012297  -99.26425558
     atom   39 type  2   force =    -0.00488676   -0.24590136  -99.26749230
     atom   40 type  2   force =    -0.39896118    0.18444428    5.65819294
     atom   41 type  2   force =     0.11430024   -0.44496986    5.62031420
     atom   42 type  2   force =     0.28363647    0.26578296    5.52723219
     atom   43 type  2   force =    -1.26314255   -0.38125273  -47.91681626
     atom   44 type  2   force =     0.96825203   -0.89210863  -47.90319316
     atom   45 type  2   force =     0.29664867    1.29218922  -47.90959583
     atom   46 type  1   force =    -0.00244553    0.00024792  -33.95093816
     atom   47 type  1   force =    -0.00826120   -0.00598637  -12.41089662
     atom   48 type  1   force =    -0.00191631    0.00108611  -40.17278136
     atom   49 type  1   force =    -0.00240310    0.00134804   -8.44468543
     atom   50 type  1   force =    -0.03588462    0.04919964    3.49088449
     atom   51 type  1   force =    -0.00071683   -0.00054729  -57.85503292
     atom   52 type  2   force =     0.21566038    0.12051555  -99.26770086
     atom   53 type  2   force =    -0.21505565    0.12653832  -99.26563608
     atom   54 type  2   force =    -0.00692042   -0.24677555  -99.26575180
     atom   55 type  2   force =    -0.36918515    0.11091874    5.52676812
     atom   56 type  2   force =     0.04186200   -0.43993685    5.65411814
     atom   57 type  2   force =     0.32809740    0.31959042    5.61966593
     atom   58 type  2   force =    -1.26453426   -0.38229470  -47.91691096
     atom   59 type  2   force =     0.96093984   -0.90742737  -47.89874676
     atom   60 type  2   force =     0.28905896    1.28430800  -47.90331441
     atom   61 type  1   force =    -0.00083620   -0.00242655  -33.95145398
     atom   62 type  1   force =     0.00118931   -0.00424631  -12.42196834
     atom   63 type  1   force =     0.00003645   -0.00247412  -40.17326243
     atom   64 type  1   force =     0.00013669   -0.00380017   -8.44649717
     atom   65 type  1   force =     0.02100332   -0.05103618    3.49020087
     atom   66 type  1   force =     0.00002290   -0.00071760  -57.85656508
     atom   67 type  2   force =     0.21572398    0.11881055  -99.26767325
     atom   68 type  2   force =    -0.21266725    0.12562340  -99.26820360
     atom   69 type  2   force =    -0.00534623   -0.25074048  -99.26477556
     atom   70 type  2   force =    -0.42576674    0.23741672    5.47435963
     atom   71 type  2   force =     0.01462718   -0.44300977    5.61552237
     atom   72 type  2   force =     0.41194162    0.17878867    5.62311731
     atom   73 type  2   force =    -1.26634607   -0.38955650  -47.91038713
     atom   74 type  2   force =     0.96339776   -0.90356953  -47.91959551
     atom   75 type  2   force =     0.29660601    1.27384389  -47.91040644
     atom   76 type  1   force =     0.00004002    0.00043263  -33.95380246
     atom   77 type  1   force =    -0.00446425    0.00211412  -12.42005055
     atom   78 type  1   force =    -0.00051049    0.00007110  -40.17686711
     atom   79 type  1   force =    -0.00018810    0.00270508   -8.44787635
     atom   80 type  1   force =     0.00025682    0.00228781    3.37630382
     atom   81 type  1   force =    -0.00065918    0.00046105  -57.85632861
     atom   82 type  2   force =     0.21768156    0.12100689  -99.26895658
     atom   83 type  2   force =    -0.21321096    0.12849848  -99.26875528
     atom   84 type  2   force =    -0.00437741   -0.24837265  -99.26927886
     atom   85 type  2   force =    -0.39359045    0.21377724    5.62168963
     atom   86 type  2   force =    -0.04916442   -0.44638949    5.63079367
     atom   87 type  2   force =     0.41722129    0.25486581    5.47857278
     atom   88 type  2   force =    -1.25916582   -0.38603054  -47.91826298
     atom   89 type  2   force =     0.95536754   -0.89317210  -47.90824383
     atom   90 type  2   force =     0.29435394    1.28557304  -47.91753865
     atom   91 type  1   force =     0.00241858    0.00010289  -33.95074656
     atom   92 type  1   force =    -0.00017629   -0.00396682  -12.42865596
     atom   93 type  1   force =     0.00008526    0.00055358  -40.17633272
     atom   94 type  1   force =     0.00152385   -0.00075569   -8.44574584
     atom   95 type  1   force =     0.03316874    0.04141502    3.49338073
     atom   96 type  1   force =     0.00000812   -0.00014371  -57.85645690
     atom   97 type  2   force =     0.21952495    0.12025290  -99.26420272
     atom   98 type  2   force =    -0.21086522    0.12690709  -99.26720477
     atom   99 type  2   force =    -0.00231959   -0.24698498  -99.26733857
     atom  100 type  2   force =    -0.33307518    0.16222473    5.63339794
     atom  101 type  2   force =    -0.04439929   -0.38059791    5.54502136
     atom  102 type  2   force =     0.38409699    0.26629848    5.60707002
     atom  103 type  2   force =    -1.25191162   -0.38049664  -47.90772375
     atom  104 type  2   force =     0.95727682   -0.90131524  -47.91293320
     atom  105 type  2   force =     0.30041251    1.28415047  -47.91505144
     atom  106 type  1   force =    -0.00001652   -0.00013020  -33.95276156
     atom  107 type  1   force =    -0.00244098    0.00196098  -12.42975011
     atom  108 type  1   force =    -0.00118108   -0.00093587  -40.17561565
     atom  109 type  1   force =    -0.00027414   -0.00177347   -8.44641888
     atom  110 type  1   force =    -0.00010090   -0.00058390    3.54543137
     atom  111 type  1   force =    -0.00000348    0.00004428  -57.85660067
     atom  112 type  2   force =     0.21720892    0.11984307  -99.26839974
     atom  113 type  2   force =    -0.21254878    0.12825739  -99.26838411
     atom  114 type  2   force =    -0.00471304   -0.24845705  -99.26822304
     atom  115 type  2   force =    -0.30455161    0.22847868    5.54329680
     atom  116 type  2   force =     0.04099077   -0.46382846    5.60235068
     atom  117 type  2   force =     0.31026874    0.20423354    5.63015807
     atom  118 type  2   force =    -1.25780631   -0.38487062  -47.91625330
     atom  119 type  2   force =     0.96274046   -0.90212800  -47.91722391
     atom  120 type  2   force =     0.29649682    1.28070666  -47.91669966
     atom  121 type  1   force =     0.00165061    0.00228268  -33.95113247
     atom  122 type  1   force =     0.00346566    0.00395984  -12.41979121
     atom  123 type  1   force =     0.00046856   -0.00002996  -40.17681276
     atom  124 type  1   force =    -0.00122843    0.00024510   -8.44764823
     atom  125 type  1   force =     0.06169585    0.00793856    3.48995022
     atom  126 type  1   force =     0.00066285    0.00047472  -57.85630569
     atom  127 type  2   force =     0.21743747    0.12318666  -99.26562535
     atom  128 type  2   force =    -0.21025729    0.12965865  -99.26580298
     atom  129 type  2   force =    -0.00321615   -0.24675096  -99.26817324
     atom  130 type  2   force =    -0.36243963    0.26874265    5.63087234
     atom  131 type  2   force =     0.00907574   -0.48735464    5.48324565
     atom  132 type  2   force =     0.37997868    0.23993517    5.61947967
     atom  133 type  2   force =    -1.25814736   -0.37785381  -47.91363711
     atom  134 type  2   force =     0.96512704   -0.89615146  -47.91643192
     atom  135 type  2   force =     0.30124683    1.28768723  -47.91790386
     atom  136 type  3   force =    -0.00035695   -0.00675059  168.88351397
     atom  137 type  4   force =    -0.04123302    0.21074391  112.17282945
     atom  138 type  4   force =     0.02987353    0.04464542   43.50280917
     atom  139 type  3   force =     0.04112403    0.36035072  168.30187578
     atom  140 type  4   force =     0.09691871    0.30264619  111.23933085
     atom  141 type  4   force =     0.00339156    0.09330797   43.15404645
     atom  142 type  3   force =     0.47484387    0.20154190  167.41031125
     atom  143 type  4   force =     0.35763799   -0.07733039  111.44427802
     atom  144 type  4   force =     0.06094300   -0.00221233   43.42749909
     atom  145 type  3   force =     0.33462241   -0.08542958  169.36350280
     atom  146 type  4   force =     0.20065818   -0.06769149  112.17489967
     atom  147 type  4   force =     0.03488424   -0.05554855   43.52049550
     atom  148 type  3   force =     0.30345802   -0.22784672  168.34488202
     atom  149 type  4   force =     0.15547715    0.03504961  112.13204640
     atom  150 type  4   force =     0.00871603    0.01366796   43.53943105
     atom  151 type  3   force =    -0.08099134    0.32865928  169.34626702
     atom  152 type  4   force =    -0.11059685    0.34486465  111.43564019
     atom  153 type  4   force =    -0.02027312    0.05801578   43.41482625
     atom  154 type  3   force =    -0.00914647    0.47651567  165.51753999
     atom  155 type  4   force =     0.00088193    0.00312277  110.36047151
     atom  156 type  4   force =     0.00176134    0.01269411   43.12273517
     atom  157 type  3   force =     0.41531149   -0.20897140  165.55587859
     atom  158 type  4   force =     0.21331854   -0.23401871  111.24316484
     atom  159 type  4   force =     0.07991903   -0.05682491   43.18838786
     atom  160 type  3   force =    -0.06868511   -0.51720172  167.46158089
     atom  161 type  4   force =    -0.01190015   -0.08701032  111.86788761
     atom  162 type  4   force =    -0.01404611    0.01837306   43.35707112
     atom  163 type  3   force =     0.05065850   -0.04321150  168.36319489
     atom  164 type  4   force =    -0.06992404    0.05347107  111.87337298
     atom  165 type  4   force =     0.03460966   -0.00213881   43.34470296
     atom  166 type  3   force =    -0.40697052    0.31778863  167.39913264
     atom  167 type  4   force =    -0.31189712   -0.06333010  111.24871279
     atom  168 type  4   force =    -0.08447071   -0.02922289   43.17435086
     atom  169 type  3   force =    -0.40204237   -0.22658032  165.55515584
     atom  170 type  4   force =    -0.24634069   -0.26797901  111.44296795
     atom  171 type  4   force =    -0.04003545   -0.05659082   43.44238599
     atom  172 type  3   force =    -0.25310022   -0.24847178  169.38009874
     atom  173 type  4   force =    -0.10516412    0.11681685  112.12978013
     atom  174 type  4   force =    -0.02557829   -0.01487727   43.54253934
     atom  175 type  3   force =    -0.00052438    0.04321738  168.36005013
     atom  176 type  4   force =     0.08198243    0.03674888  111.87827954
     atom  177 type  4   force =    -0.02093196   -0.02252810   43.34224435
     atom  178 type  3   force =    -0.05216526   -0.02531609  168.39503947
     atom  179 type  4   force =    -0.05009067   -0.14673144  112.14224922
     atom  180 type  4   force =     0.01564475   -0.01447304   43.54468178
     atom  181 type  3   force =    -0.34588340   -0.13646751  168.35002342
     atom  182 type  4   force =    -0.15901535   -0.13786123  112.17431181
     atom  183 type  4   force =    -0.06531073   -0.00920599   43.52125978
     The local contribution  to forces
     atom    1 type  1   force =     0.00000691    0.00026976   33.92523489
     atom    2 type  1   force =    -0.00880971    0.00444994   12.44365592
     atom    3 type  1   force =    -0.00273109   -0.00148680   40.08961807
     atom    4 type  1   force =    -0.00697043   -0.00396431    8.50784549
     atom    5 type  1   force =    -0.00004761    0.00127379   -3.64538133
     atom    6 type  1   force =    -0.00074555    0.00047896   58.27084252
     atom    7 type  2   force =    -0.72099256   -0.18776284   99.18852602
     atom    8 type  2   force =     0.52334347   -0.52996473   99.18875129
     atom    9 type  2   force =     0.19768495    0.71844961   99.18841148
     atom   10 type  2   force =    -0.03020991    0.30108924   -4.94762985
     atom   11 type  2   force =    -0.20431207   -0.23578745   -4.85525305
     atom   12 type  2   force =     0.23334205   -0.05361641   -4.99088835
     atom   13 type  2   force =     1.16385884    0.24834945   47.84810187
     atom   14 type  2   force =    -0.80641704    0.87684157   47.86030084
     atom   15 type  2   force =    -0.36679203   -1.13122516   47.84831105
     atom   16 type  1   force =     0.00071608    0.00460041   33.93274892
     atom   17 type  1   force =     0.00298307    0.00092095   12.46361411
     atom   18 type  1   force =    -0.00075132    0.00097364   40.09144711
     atom   19 type  1   force =    -0.00076183   -0.00065992    8.50753330
     atom   20 type  1   force =     0.03200790    0.06748035   -3.54997852
     atom   21 type  1   force =     0.00041047    0.00009181   58.27213601
     atom   22 type  2   force =    -0.72243074   -0.18256331   99.19420123
     atom   23 type  2   force =     0.52525389   -0.52955036   99.19714446
     atom   24 type  2   force =     0.19745578    0.72276603   99.19232172
     atom   25 type  2   force =    -0.02846260    0.21508258   -4.91321462
     atom   26 type  2   force =    -0.13419076   -0.24447473   -4.96877682
     atom   27 type  2   force =     0.25192840    0.05884871   -4.87454670
     atom   28 type  2   force =     1.15615821    0.26881091   47.85695141
     atom   29 type  2   force =    -0.79631083    0.87394828   47.86547279
     atom   30 type  2   force =    -0.35734315   -1.12132499   47.86491867
     atom   31 type  1   force =     0.00338957   -0.00230401   33.93205959
     atom   32 type  1   force =     0.00156899   -0.00994294   12.44303119
     atom   33 type  1   force =    -0.00020585   -0.00128867   40.09141284
     atom   34 type  1   force =     0.00184705   -0.00087493    8.50738974
     atom   35 type  1   force =     0.06169346   -0.00769230   -3.55576225
     atom   36 type  1   force =     0.00009292   -0.00089146   58.27075849
     atom   37 type  2   force =    -0.71697257   -0.18850707   99.19749353
     atom   38 type  2   force =     0.52797215   -0.53531923   99.19089768
     atom   39 type  2   force =     0.20137906    0.71894880   99.19373981
     atom   40 type  2   force =    -0.06751294    0.22821313   -4.99069045
     atom   41 type  2   force =    -0.24180218   -0.17494813   -4.95107695
     atom   42 type  2   force =     0.30936922   -0.06085087   -4.85773047
     atom   43 type  2   force =     1.16684887    0.25411779   47.87394784
     atom   44 type  2   force =    -0.80979326    0.86670722   47.85515352
     atom   45 type  2   force =    -0.35492793   -1.13734476   47.86021686
     atom   46 type  1   force =     0.00348870   -0.00258496   33.93203444
     atom   47 type  1   force =     0.00731491    0.00696779   12.44359963
     atom   48 type  1   force =     0.00267330   -0.00163662   40.08965320
     atom   49 type  1   force =     0.00706734   -0.00413776    8.50803778
     atom   50 type  1   force =     0.04163634   -0.05936623   -3.55342583
     atom   51 type  1   force =     0.00065613    0.00061641   58.27084217
     atom   52 type  2   force =    -0.72112881   -0.18987720   99.19639649
     atom   53 type  2   force =     0.52690063   -0.53180725   99.19197800
     atom   54 type  2   force =     0.20297015    0.71698746   99.19337757
     atom   55 type  2   force =    -0.10472656    0.30015527   -4.85729325
     atom   56 type  2   force =    -0.16593036   -0.17034195   -4.98660739
     atom   57 type  2   force =     0.27252996   -0.12004979   -4.95045430
     atom   58 type  2   force =     1.16460563    0.24676871   47.87898439
     atom   59 type  2   force =    -0.79700404    0.88499799   47.84917015
     atom   60 type  2   force =    -0.34627601   -1.13437153   47.85527564
     atom   61 type  1   force =    -0.00005150    0.00399976   33.93248920
     atom   62 type  1   force =    -0.00212944    0.00956158   12.46114445
     atom   63 type  1   force =     0.00006431    0.00340202   40.09012813
     atom   64 type  1   force =    -0.00003326    0.00922437    8.50982379
     atom   65 type  1   force =    -0.02583362    0.05701539   -3.55355630
     atom   66 type  1   force =    -0.00003308    0.00123141   58.27085540
     atom   67 type  2   force =    -0.72363765   -0.18516737   99.19392543
     atom   68 type  2   force =     0.52134674   -0.52700215   99.19794198
     atom   69 type  2   force =     0.19937212    0.72507477   99.19141451
     atom   70 type  2   force =    -0.04547468    0.16833628   -4.76381662
     atom   71 type  2   force =    -0.12079302   -0.15118472   -4.91497764
     atom   72 type  2   force =     0.17337788    0.04235614   -4.93689410
     atom   73 type  2   force =     1.16140792    0.26166821   47.86101375
     atom   74 type  2   force =    -0.79604591    0.88478662   47.88160815
     atom   75 type  2   force =    -0.35836733   -1.11425674   47.86742512
     atom   76 type  1   force =    -0.00003431   -0.00042305   33.93869715
     atom   77 type  1   force =     0.00955763   -0.00392648   12.45925525
     atom   78 type  1   force =     0.00164812    0.00069534   40.09653104
     atom   79 type  1   force =     0.00599585   -0.00112276    8.51502397
     atom   80 type  1   force =    -0.00025083   -0.00224216   -3.41241091
     atom   81 type  1   force =     0.00110867   -0.00070669   58.27061506
     atom   82 type  2   force =    -0.72341081   -0.18760398   99.19925153
     atom   83 type  2   force =     0.52375520   -0.53315495   99.19906022
     atom   84 type  2   force =     0.19955940    0.71966055   99.19956815
     atom   85 type  2   force =    -0.06794854    0.17536693   -4.92100027
     atom   86 type  2   force =    -0.05198421   -0.17114469   -4.94454366
     atom   87 type  2   force =     0.16989335   -0.04957348   -4.76811613
     atom   88 type  2   force =     1.15417243    0.25985484   47.88340544
     atom   89 type  2   force =    -0.78626201    0.86688195   47.86527845
     atom   90 type  2   force =    -0.35112413   -1.13150747   47.88268173
     atom   91 type  1   force =    -0.00334311   -0.00166384   33.93179988
     atom   92 type  1   force =    -0.00031280   -0.00210549   12.46249902
     atom   93 type  1   force =     0.00000777   -0.00191717   40.09601770
     atom   94 type  1   force =    -0.00305774   -0.00505953    8.51293489
     atom   95 type  1   force =    -0.03595836   -0.04861708   -3.55673245
     atom   96 type  1   force =    -0.00008823   -0.00027759   58.27196937
     atom   97 type  2   force =    -0.72732666   -0.18939026   99.19085646
     atom   98 type  2   force =     0.52227783   -0.53360112   99.19346570
     atom   99 type  2   force =     0.19558260    0.71499142   99.19709696
     atom  100 type  2   force =    -0.14155811    0.24075687   -4.97050472
     atom  101 type  2   force =    -0.07582239   -0.24380813   -4.87634310
     atom  102 type  2   force =     0.20203673   -0.08015692   -4.91972453
     atom  103 type  2   force =     1.14456628    0.24721889   47.86478960
     atom  104 type  2   force =    -0.79280754    0.87167447   47.86357211
     atom  105 type  2   force =    -0.36236340   -1.13719455   47.87225322
     atom  106 type  1   force =     0.00001380    0.00012202   33.93136066
     atom  107 type  1   force =    -0.00255883    0.00148460   12.46355585
     atom  108 type  1   force =     0.00098649    0.00056733   40.09142882
     atom  109 type  1   force =    -0.00103071    0.00247092    8.50747640
     atom  110 type  1   force =     0.00008447    0.00054731   -3.62414153
     atom  111 type  1   force =    -0.00032046    0.00023461   58.27212010
     atom  112 type  2   force =    -0.72332192   -0.18773238   99.19408500
     atom  113 type  2   force =     0.52438585   -0.53262324   99.19406675
     atom  114 type  2   force =     0.19897727    0.72069320   99.19391288
     atom  115 type  2   force =    -0.17602085    0.18781084   -4.87470589
     atom  116 type  2   force =    -0.17283805   -0.13680840   -4.91514237
     atom  117 type  2   force =     0.27606587    0.00524013   -4.96734830
     atom  118 type  2   force =     1.15551791    0.25351409   47.86504770
     atom  119 type  2   force =    -0.80448236    0.88229709   47.87435397
     atom  120 type  2   force =    -0.35908306   -1.12648681   47.86548412
     atom  121 type  1   force =    -0.00419166   -0.00200938   33.93222005
     atom  122 type  1   force =    -0.00760062   -0.00741614   12.45900453
     atom  123 type  1   force =    -0.00169766    0.00063733   40.09648093
     atom  124 type  1   force =    -0.00305314    0.00401800    8.51480059
     atom  125 type  1   force =    -0.07334408   -0.00778888   -3.55252598
     atom  126 type  1   force =    -0.00110219   -0.00073855   58.27059169
     atom  127 type  2   force =    -0.72432859   -0.19061240   99.19196659
     atom  128 type  2   force =     0.51944306   -0.53453331   99.19343307
     atom  129 type  2   force =     0.19588407    0.71919736   99.19685750
     atom  130 type  2   force =    -0.12181070    0.12769977   -4.94462061
     atom  131 type  2   force =    -0.12490528   -0.12370303   -4.77274547
     atom  132 type  2   force =     0.18774416   -0.03469179   -4.91885889
     atom  133 type  2   force =     1.15026886    0.25025938   47.86423910
     atom  134 type  2   force =    -0.80333802    0.86833090   47.88161569
     atom  135 type  2   force =    -0.36866009   -1.13333705   47.87994104
     atom  136 type  3   force =     0.00031756    0.00675236 -168.89165681
     atom  137 type  4   force =     0.04024399   -0.20938257 -111.91460878
     atom  138 type  4   force =    -0.02658140   -0.03351583  -43.75648125
     atom  139 type  3   force =    -0.03913253   -0.36101290 -168.30858048
     atom  140 type  4   force =    -0.09579957   -0.29917599 -110.98479835
     atom  141 type  4   force =    -0.00283061   -0.08146984  -43.37243311
     atom  142 type  3   force =    -0.47263014   -0.20183876 -167.41797452
     atom  143 type  4   force =    -0.35316166    0.07617788 -111.18645676
     atom  144 type  4   force =    -0.05660638   -0.00089601  -43.64191545
     atom  145 type  3   force =    -0.33470234    0.08854815 -169.36703231
     atom  146 type  4   force =    -0.19895299    0.06768943 -111.91656268
     atom  147 type  4   force =    -0.02689896    0.04711732  -43.77427043
     atom  148 type  3   force =    -0.30486216    0.22643358 -168.35141219
     atom  149 type  4   force =    -0.15302297   -0.03486225 -111.86917126
     atom  150 type  4   force =    -0.00698784   -0.00751464  -43.79300773
     atom  151 type  3   force =     0.07854317   -0.33020444 -169.34985845
     atom  152 type  4   force =     0.10932489   -0.34037670 -111.17781904
     atom  153 type  4   force =     0.02095101   -0.05260989  -43.62916787
     atom  154 type  3   force =     0.00850963   -0.47619713 -165.52454407
     atom  155 type  4   force =    -0.00088405   -0.00321604 -110.10901283
     atom  156 type  4   force =    -0.00174256   -0.01261019  -43.30277595
     atom  157 type  3   force =    -0.41472830    0.20948699 -165.56278138
     atom  158 type  4   force =    -0.21087884    0.23120739 -110.98859305
     atom  159 type  4   force =    -0.07005757    0.05057031  -43.40685277
     atom  160 type  3   force =     0.06740161    0.51549302 -167.46908018
     atom  161 type  4   force =     0.01202247    0.08626137 -111.60304423
     atom  162 type  4   force =     0.01476266   -0.02030647  -43.61203989
     atom  163 type  3   force =    -0.05046239    0.04264496 -168.37704467
     atom  164 type  4   force =     0.06916228   -0.05319498 -111.60860441
     atom  165 type  4   force =    -0.03662267    0.00261982  -43.59962649
     atom  166 type  3   force =     0.40608418   -0.31582333 -167.40688653
     atom  167 type  4   force =     0.30834037    0.06245826 -110.99413750
     atom  168 type  4   force =     0.07406450    0.02394494  -43.39277024
     atom  169 type  3   force =     0.40206962    0.22590364 -165.56203750
     atom  170 type  4   force =     0.24314093    0.26452142 -111.18523265
     atom  171 type  4   force =     0.03505011    0.05458648  -43.65677748
     atom  172 type  3   force =     0.25561999    0.24717917 -169.38353265
     atom  173 type  4   force =     0.10374376   -0.11483352 -111.86678527
     atom  174 type  4   force =     0.01939146    0.01321447  -43.79621558
     atom  175 type  3   force =     0.00080001   -0.04291371 -168.37392465
     atom  176 type  4   force =    -0.08137438   -0.03629985 -111.61359318
     atom  177 type  4   force =     0.02222248    0.02421935  -43.59709677
     atom  178 type  3   force =     0.05159234    0.02527851 -168.40864610
     atom  179 type  4   force =     0.04908659    0.14449777 -111.87935154
     atom  180 type  4   force =    -0.01121562    0.01010736  -43.79837918
     atom  181 type  3   force =     0.34543877    0.13852763 -168.35651962
     atom  182 type  4   force =     0.15826956    0.13622452 -111.91601082
     atom  183 type  4   force =     0.05403631    0.00653581  -43.77506607
     The core correction contribution to forces
     atom    1 type  1   force =    -0.00000018   -0.00000008    0.00828591
     atom    2 type  1   force =     0.00000025   -0.00006073    0.00756368
     atom    3 type  1   force =    -0.00003581   -0.00001044   -0.00918487
     atom    4 type  1   force =    -0.00019279   -0.00015122    0.00944069
     atom    5 type  1   force =     0.00000057   -0.00000088   -0.01271921
     atom    6 type  1   force =    -0.00001140   -0.00001772    0.02804644
     atom    7 type  2   force =    -0.00617765   -0.00112227    0.00105090
     atom    8 type  2   force =     0.00406074   -0.00478905    0.00105084
     atom    9 type  2   force =     0.00211699    0.00591117    0.00105101
     atom   10 type  2   force =    -0.00423201    0.00389704    0.00587189
     atom   11 type  2   force =    -0.00112374   -0.00559625    0.00592826
     atom   12 type  2   force =     0.00535048    0.00171706    0.00581421
     atom   13 type  2   force =    -0.00083722   -0.00116786   -0.00045342
     atom   14 type  2   force =     0.00141987   -0.00020810   -0.00045126
     atom   15 type  2   force =    -0.00059310    0.00130879   -0.00045331
     atom   16 type  1   force =     0.00006937    0.00010257    0.00831359
     atom   17 type  1   force =     0.00025170    0.00008258    0.00763405
     atom   18 type  1   force =     0.00002010    0.00000502   -0.00921636
     atom   19 type  1   force =    -0.00002489   -0.00006388    0.00933856
     atom   20 type  1   force =     0.00007678    0.00017936   -0.01212434
     atom   21 type  1   force =     0.00002761   -0.00000169    0.02802829
     atom   22 type  2   force =    -0.00616744   -0.00109186    0.00106274
     atom   23 type  2   force =     0.00407609   -0.00477037    0.00107948
     atom   24 type  2   force =     0.00212482    0.00591798    0.00104362
     atom   25 type  2   force =    -0.00395838    0.00378400    0.00613050
     atom   26 type  2   force =    -0.00099814   -0.00553562    0.00574914
     atom   27 type  2   force =     0.00549482    0.00190681    0.00588376
     atom   28 type  2   force =    -0.00083549   -0.00107642   -0.00043327
     atom   29 type  2   force =     0.00144163   -0.00014938   -0.00047743
     atom   30 type  2   force =    -0.00050315    0.00136960   -0.00045132
     atom   31 type  1   force =     0.00006270   -0.00000416    0.00831468
     atom   32 type  1   force =     0.00005161    0.00003140    0.00756372
     atom   33 type  1   force =    -0.00001472    0.00001475   -0.00921671
     atom   34 type  1   force =     0.00006610    0.00001011    0.00933818
     atom   35 type  1   force =     0.00023679    0.00004580   -0.01219714
     atom   36 type  1   force =     0.00002101   -0.00000078    0.02804656
     atom   37 type  2   force =    -0.00612279   -0.00111081    0.00109478
     atom   38 type  2   force =     0.00408907   -0.00479869    0.00105111
     atom   39 type  2   force =     0.00214636    0.00592364    0.00104355
     atom   40 type  2   force =    -0.00416280    0.00377594    0.00581341
     atom   41 type  2   force =    -0.00125985   -0.00561377    0.00587250
     atom   42 type  2   force =     0.00540778    0.00182542    0.00592765
     atom   43 type  2   force =    -0.00076286   -0.00111919   -0.00035368
     atom   44 type  2   force =     0.00134961   -0.00018516   -0.00043273
     atom   45 type  2   force =    -0.00053008    0.00133388   -0.00045181
     atom   46 type  1   force =     0.00005424   -0.00011163    0.00831397
     atom   47 type  1   force =    -0.00005261    0.00002911    0.00756366
     atom   48 type  1   force =     0.00002666   -0.00002575   -0.00918500
     atom   49 type  1   force =     0.00022786   -0.00009111    0.00944058
     atom   50 type  1   force =     0.00011772   -0.00015707   -0.01212881
     atom   51 type  1   force =    -0.00000970    0.00001873    0.02804646
     atom   52 type  2   force =    -0.00616914   -0.00114489    0.00107982
     atom   53 type  2   force =     0.00406279   -0.00479940    0.00104363
     atom   54 type  2   force =     0.00213823    0.00588698    0.00106288
     atom   55 type  2   force =    -0.00428376    0.00377033    0.00592746
     atom   56 type  2   force =    -0.00118777   -0.00549258    0.00581388
     atom   57 type  2   force =     0.00549177    0.00171583    0.00587212
     atom   58 type  2   force =    -0.00081535   -0.00124557   -0.00027432
     atom   59 type  2   force =     0.00143022   -0.00014126   -0.00045355
     atom   60 type  2   force =    -0.00051427    0.00126145   -0.00043276
     atom   61 type  1   force =    -0.00002749    0.00005632    0.00831460
     atom   62 type  1   force =     0.00000454    0.00020732    0.00781054
     atom   63 type  1   force =     0.00000889    0.00003575   -0.00918525
     atom   64 type  1   force =    -0.00003450    0.00024235    0.00944034
     atom   65 type  1   force =    -0.00015798    0.00018237   -0.01219422
     atom   66 type  1   force =    -0.00000605    0.00002932    0.02793889
     atom   67 type  2   force =    -0.00620317   -0.00110308    0.00104357
     atom   68 type  2   force =     0.00402343   -0.00474707    0.00109476
     atom   69 type  2   force =     0.00211135    0.00594054    0.00105102
     atom   70 type  2   force =    -0.00420049    0.00362822    0.00658063
     atom   71 type  2   force =    -0.00090704   -0.00523336    0.00633220
     atom   72 type  2   force =     0.00523955    0.00208103    0.00611224
     atom   73 type  2   force =    -0.00088984   -0.00112603   -0.00045175
     atom   74 type  2   force =     0.00148658   -0.00008339   -0.00027522
     atom   75 type  2   force =    -0.00058179    0.00140449   -0.00035161
     atom   76 type  1   force =     0.00000024    0.00000035    0.00840818
     atom   77 type  1   force =     0.00017815   -0.00010638    0.00781114
     atom   78 type  1   force =     0.00004434    0.00003085   -0.00908471
     atom   79 type  1   force =     0.00022297    0.00008668    0.00955034
     atom   80 type  1   force =    -0.00000009    0.00000098   -0.01057505
     atom   81 type  1   force =     0.00002828   -0.00000930    0.02793857
     atom   82 type  2   force =    -0.00617650   -0.00111147    0.00110503
     atom   83 type  2   force =     0.00405090   -0.00479295    0.00110514
     atom   84 type  2   force =     0.00212560    0.00590490    0.00110497
     atom   85 type  2   force =    -0.00407914    0.00340360    0.00633383
     atom   86 type  2   force =    -0.00081789   -0.00557895    0.00611199
     atom   87 type  2   force =     0.00524399    0.00182445    0.00657871
     atom   88 type  2   force =    -0.00089259   -0.00110857   -0.00023155
     atom   89 type  2   force =     0.00150744   -0.00019821   -0.00035134
     atom   90 type  2   force =    -0.00051368    0.00132797   -0.00023147
     atom   91 type  1   force =    -0.00003534   -0.00005213    0.00831504
     atom   92 type  1   force =    -0.00005387   -0.00025945    0.00763498
     atom   93 type  1   force =     0.00000452   -0.00005380   -0.00908401
     atom   94 type  1   force =    -0.00003636   -0.00023656    0.00955122
     atom   95 type  1   force =    -0.00007944   -0.00022834   -0.01219741
     atom   96 type  1   force =    -0.00001540   -0.00002316    0.02802782
     atom   97 type  2   force =    -0.00620040   -0.00114187    0.00105126
     atom   98 type  2   force =     0.00405674   -0.00482062    0.00104378
     atom   99 type  2   force =     0.00209929    0.00585782    0.00109505
     atom  100 type  2   force =    -0.00429545    0.00363119    0.00575113
     atom  101 type  2   force =    -0.00109524   -0.00571351    0.00588525
     atom  102 type  2   force =     0.00525763    0.00153617    0.00613073
     atom  103 type  2   force =    -0.00092573   -0.00120602   -0.00035087
     atom  104 type  2   force =     0.00143826   -0.00024943   -0.00045087
     atom  105 type  2   force =    -0.00058781    0.00122020   -0.00035264
     atom  106 type  1   force =    -0.00000003   -0.00000032    0.00824884
     atom  107 type  1   force =    -0.00019730    0.00017602    0.00763393
     atom  108 type  1   force =    -0.00000537   -0.00002036   -0.00921644
     atom  109 type  1   force =    -0.00004121    0.00005256    0.00933858
     atom  110 type  1   force =    -0.00000092   -0.00000101   -0.01257324
     atom  111 type  1   force =    -0.00001251    0.00002496    0.02802828
     atom  112 type  2   force =    -0.00617810   -0.00112216    0.00103533
     atom  113 type  2   force =     0.00406066   -0.00478933    0.00103525
     atom  114 type  2   force =     0.00211725    0.00591127    0.00103535
     atom  115 type  2   force =    -0.00439960    0.00380495    0.00588426
     atom  116 type  2   force =    -0.00129818   -0.00532072    0.00612897
     atom  117 type  2   force =     0.00529284    0.00190333    0.00574996
     atom  118 type  2   force =    -0.00085019   -0.00117430   -0.00047691
     atom  119 type  2   force =     0.00135081   -0.00010106   -0.00035370
     atom  120 type  2   force =    -0.00059147    0.00132280   -0.00047706
     atom  121 type  1   force =    -0.00012365    0.00000908    0.00831375
     atom  122 type  1   force =    -0.00018174   -0.00009922    0.00781145
     atom  123 type  1   force =    -0.00004885    0.00002299   -0.00908461
     atom  124 type  1   force =    -0.00018735    0.00015051    0.00955056
     atom  125 type  1   force =    -0.00019437   -0.00002209   -0.01212797
     atom  126 type  1   force =    -0.00002240   -0.00001955    0.02793849
     atom  127 type  2   force =    -0.00618772   -0.00111875    0.00104357
     atom  128 type  2   force =     0.00402909   -0.00479501    0.00106289
     atom  129 type  2   force =     0.00209319    0.00591524    0.00107961
     atom  130 type  2   force =    -0.00442295    0.00349887    0.00611215
     atom  131 type  2   force =    -0.00104285   -0.00545304    0.00657861
     atom  132 type  2   force =     0.00498644    0.00183240    0.00633301
     atom  133 type  2   force =    -0.00093476   -0.00112055   -0.00045135
     atom  134 type  2   force =     0.00140660   -0.00021842   -0.00023092
     atom  135 type  2   force =    -0.00067113    0.00132955   -0.00027480
     atom  136 type  3   force =    -0.00000512   -0.00000386   -0.00080710
     atom  137 type  4   force =    -0.00003254    0.00000751    0.02991560
     atom  138 type  4   force =     0.00040612    0.00127036   -0.03008928
     atom  139 type  3   force =     0.00010179    0.00027828   -0.00065172
     atom  140 type  4   force =     0.00020836    0.00035299    0.02962790
     atom  141 type  4   force =    -0.00002516    0.00127755   -0.02579084
     atom  142 type  3   force =     0.00055272    0.00014096   -0.00083807
     atom  143 type  4   force =     0.00039719   -0.00004421    0.03021261
     atom  144 type  4   force =     0.00027546   -0.00038419   -0.02514395
     atom  145 type  3   force =     0.00027295    0.00009050   -0.00050044
     atom  146 type  4   force =     0.00006058   -0.00003767    0.02993389
     atom  147 type  4   force =     0.00085700   -0.00097871   -0.03007618
     atom  148 type  3   force =     0.00020889   -0.00023580   -0.00064081
     atom  149 type  4   force =     0.00010405    0.00002375    0.03051995
     atom  150 type  4   force =     0.00018991    0.00083754   -0.02998147
     atom  151 type  3   force =    -0.00019559    0.00019835   -0.00049820
     atom  152 type  4   force =    -0.00016642    0.00039655    0.03019276
     atom  153 type  4   force =     0.00021671    0.00044878   -0.02514560
     atom  154 type  3   force =    -0.00002620    0.00035686   -0.00114511
     atom  155 type  4   force =    -0.00001017   -0.00003436    0.02958251
     atom  156 type  4   force =    -0.00000431   -0.00001571   -0.02119799
     atom  157 type  3   force =     0.00031809   -0.00013687   -0.00114011
     atom  158 type  4   force =     0.00022407   -0.00038389    0.02964486
     atom  159 type  4   force =     0.00108972   -0.00053930   -0.02576220
     atom  160 type  3   force =    -0.00014621   -0.00054406   -0.00082359
     atom  161 type  4   force =     0.00008714   -0.00012998    0.03077161
     atom  162 type  4   force =     0.00013369   -0.00015283   -0.03013930
     atom  163 type  3   force =     0.00010516   -0.00007002   -0.00114086
     atom  164 type  4   force =    -0.00016972   -0.00002574    0.03077462
     atom  165 type  4   force =    -0.00022831    0.00002062   -0.03014523
     atom  166 type  3   force =    -0.00040133    0.00040171   -0.00084978
     atom  167 type  4   force =    -0.00040563   -0.00005591    0.02966284
     atom  168 type  4   force =    -0.00105057   -0.00067419   -0.02576285
     atom  169 type  3   force =    -0.00029441   -0.00018902   -0.00113971
     atom  170 type  4   force =    -0.00023599   -0.00036511    0.03020284
     atom  171 type  4   force =    -0.00048985    0.00005310   -0.02513464
     atom  172 type  3   force =    -0.00007987   -0.00026615   -0.00048811
     atom  173 type  4   force =    -0.00010821    0.00005102    0.03052979
     atom  174 type  4   force =    -0.00079153   -0.00024156   -0.02997736
     atom  175 type  3   force =    -0.00000410    0.00010717   -0.00114564
     atom  176 type  4   force =     0.00006742    0.00008508    0.03077257
     atom  177 type  4   force =     0.00009733    0.00020931   -0.03013826
     atom  178 type  3   force =    -0.00010821   -0.00007142   -0.00112070
     atom  179 type  4   force =     0.00001378   -0.00013555    0.03053470
     atom  180 type  4   force =     0.00059814   -0.00050751   -0.02999111
     atom  181 type  3   force =    -0.00029797   -0.00004854   -0.00063830
     atom  182 type  4   force =    -0.00004551   -0.00007471    0.02992175
     atom  183 type  4   force =    -0.00126042   -0.00021256   -0.03009153
     The Hubbard contrib.    to forces
     atom    1 type  1   force =     0.00000000    0.00000000    0.00000000
     atom    2 type  1   force =     0.00000000    0.00000000    0.00000000
     atom    3 type  1   force =     0.00000000    0.00000000    0.00000000
     atom    4 type  1   force =     0.00000000    0.00000000    0.00000000
     atom    5 type  1   force =     0.00000000    0.00000000    0.00000000
     atom    6 type  1   force =     0.00000000    0.00000000    0.00000000
     atom    7 type  2   force =     0.00000000    0.00000000    0.00000000
     atom    8 type  2   force =     0.00000000    0.00000000    0.00000000
     atom    9 type  2   force =     0.00000000    0.00000000    0.00000000
     atom   10 type  2   force =     0.00000000    0.00000000    0.00000000
     atom   11 type  2   force =     0.00000000    0.00000000    0.00000000
     atom   12 type  2   force =     0.00000000    0.00000000    0.00000000
     atom   13 type  2   force =     0.00000000    0.00000000    0.00000000
     atom   14 type  2   force =     0.00000000    0.00000000    0.00000000
     atom   15 type  2   force =     0.00000000    0.00000000    0.00000000
     atom   16 type  1   force =     0.00000000    0.00000000    0.00000000
     atom   17 type  1   force =     0.00000000    0.00000000    0.00000000
     atom   18 type  1   force =     0.00000000    0.00000000    0.00000000
     atom   19 type  1   force =     0.00000000    0.00000000    0.00000000
     atom   20 type  1   force =     0.00000000    0.00000000    0.00000000
     atom   21 type  1   force =     0.00000000    0.00000000    0.00000000
     atom   22 type  2   force =     0.00000000    0.00000000    0.00000000
     atom   23 type  2   force =     0.00000000    0.00000000    0.00000000
     atom   24 type  2   force =     0.00000000    0.00000000    0.00000000
     atom   25 type  2   force =     0.00000000    0.00000000    0.00000000
     atom   26 type  2   force =     0.00000000    0.00000000    0.00000000
     atom   27 type  2   force =     0.00000000    0.00000000    0.00000000
     atom   28 type  2   force =     0.00000000    0.00000000    0.00000000
     atom   29 type  2   force =     0.00000000    0.00000000    0.00000000
     atom   30 type  2   force =     0.00000000    0.00000000    0.00000000
     atom   31 type  1   force =     0.00000000    0.00000000    0.00000000
     atom   32 type  1   force =     0.00000000    0.00000000    0.00000000
     atom   33 type  1   force =     0.00000000    0.00000000    0.00000000
     atom   34 type  1   force =     0.00000000    0.00000000    0.00000000
     atom   35 type  1   force =     0.00000000    0.00000000    0.00000000
     atom   36 type  1   force =     0.00000000    0.00000000    0.00000000
     atom   37 type  2   force =     0.00000000    0.00000000    0.00000000
     atom   38 type  2   force =     0.00000000    0.00000000    0.00000000
     atom   39 type  2   force =     0.00000000    0.00000000    0.00000000
     atom   40 type  2   force =     0.00000000    0.00000000    0.00000000
     atom   41 type  2   force =     0.00000000    0.00000000    0.00000000
     atom   42 type  2   force =     0.00000000    0.00000000    0.00000000
     atom   43 type  2   force =     0.00000000    0.00000000    0.00000000
     atom   44 type  2   force =     0.00000000    0.00000000    0.00000000
     atom   45 type  2   force =     0.00000000    0.00000000    0.00000000
     atom   46 type  1   force =     0.00000000    0.00000000    0.00000000
     atom   47 type  1   force =     0.00000000    0.00000000    0.00000000
     atom   48 type  1   force =     0.00000000    0.00000000    0.00000000
     atom   49 type  1   force =     0.00000000    0.00000000    0.00000000
     atom   50 type  1   force =     0.00000000    0.00000000    0.00000000
     atom   51 type  1   force =     0.00000000    0.00000000    0.00000000
     atom   52 type  2   force =     0.00000000    0.00000000    0.00000000
     atom   53 type  2   force =     0.00000000    0.00000000    0.00000000
     atom   54 type  2   force =     0.00000000    0.00000000    0.00000000
     atom   55 type  2   force =     0.00000000    0.00000000    0.00000000
     atom   56 type  2   force =     0.00000000    0.00000000    0.00000000
     atom   57 type  2   force =     0.00000000    0.00000000    0.00000000
     atom   58 type  2   force =     0.00000000    0.00000000    0.00000000
     atom   59 type  2   force =     0.00000000    0.00000000    0.00000000
     atom   60 type  2   force =     0.00000000    0.00000000    0.00000000
     atom   61 type  1   force =     0.00000000    0.00000000    0.00000000
     atom   62 type  1   force =     0.00000000    0.00000000    0.00000000
     atom   63 type  1   force =     0.00000000    0.00000000    0.00000000
     atom   64 type  1   force =     0.00000000    0.00000000    0.00000000
     atom   65 type  1   force =     0.00000000    0.00000000    0.00000000
     atom   66 type  1   force =     0.00000000    0.00000000    0.00000000
     atom   67 type  2   force =     0.00000000    0.00000000    0.00000000
     atom   68 type  2   force =     0.00000000    0.00000000    0.00000000
     atom   69 type  2   force =     0.00000000    0.00000000    0.00000000
     atom   70 type  2   force =     0.00000000    0.00000000    0.00000000
     atom   71 type  2   force =     0.00000000    0.00000000    0.00000000
     atom   72 type  2   force =     0.00000000    0.00000000    0.00000000
     atom   73 type  2   force =     0.00000000    0.00000000    0.00000000
     atom   74 type  2   force =     0.00000000    0.00000000    0.00000000
     atom   75 type  2   force =     0.00000000    0.00000000    0.00000000
     atom   76 type  1   force =     0.00000000    0.00000000    0.00000000
     atom   77 type  1   force =     0.00000000    0.00000000    0.00000000
     atom   78 type  1   force =     0.00000000    0.00000000    0.00000000
     atom   79 type  1   force =     0.00000000    0.00000000    0.00000000
     atom   80 type  1   force =     0.00000000    0.00000000    0.00000000
     atom   81 type  1   force =     0.00000000    0.00000000    0.00000000
     atom   82 type  2   force =     0.00000000    0.00000000    0.00000000
     atom   83 type  2   force =     0.00000000    0.00000000    0.00000000
     atom   84 type  2   force =     0.00000000    0.00000000    0.00000000
     atom   85 type  2   force =     0.00000000    0.00000000    0.00000000
     atom   86 type  2   force =     0.00000000    0.00000000    0.00000000
     atom   87 type  2   force =     0.00000000    0.00000000    0.00000000
     atom   88 type  2   force =     0.00000000    0.00000000    0.00000000
     atom   89 type  2   force =     0.00000000    0.00000000    0.00000000
     atom   90 type  2   force =     0.00000000    0.00000000    0.00000000
     atom   91 type  1   force =     0.00000000    0.00000000    0.00000000
     atom   92 type  1   force =     0.00000000    0.00000000    0.00000000
     atom   93 type  1   force =     0.00000000    0.00000000    0.00000000
     atom   94 type  1   force =     0.00000000    0.00000000    0.00000000
     atom   95 type  1   force =     0.00000000    0.00000000    0.00000000
     atom   96 type  1   force =     0.00000000    0.00000000    0.00000000
     atom   97 type  2   force =     0.00000000    0.00000000    0.00000000
     atom   98 type  2   force =     0.00000000    0.00000000    0.00000000
     atom   99 type  2   force =     0.00000000    0.00000000    0.00000000
     atom  100 type  2   force =     0.00000000    0.00000000    0.00000000
     atom  101 type  2   force =     0.00000000    0.00000000    0.00000000
     atom  102 type  2   force =     0.00000000    0.00000000    0.00000000
     atom  103 type  2   force =     0.00000000    0.00000000    0.00000000
     atom  104 type  2   force =     0.00000000    0.00000000    0.00000000
     atom  105 type  2   force =     0.00000000    0.00000000    0.00000000
     atom  106 type  1   force =     0.00000000    0.00000000    0.00000000
     atom  107 type  1   force =     0.00000000    0.00000000    0.00000000
     atom  108 type  1   force =     0.00000000    0.00000000    0.00000000
     atom  109 type  1   force =     0.00000000    0.00000000    0.00000000
     atom  110 type  1   force =     0.00000000    0.00000000    0.00000000
     atom  111 type  1   force =     0.00000000    0.00000000    0.00000000
     atom  112 type  2   force =     0.00000000    0.00000000    0.00000000
     atom  113 type  2   force =     0.00000000    0.00000000    0.00000000
     atom  114 type  2   force =     0.00000000    0.00000000    0.00000000
     atom  115 type  2   force =     0.00000000    0.00000000    0.00000000
     atom  116 type  2   force =     0.00000000    0.00000000    0.00000000
     atom  117 type  2   force =     0.00000000    0.00000000    0.00000000
     atom  118 type  2   force =     0.00000000    0.00000000    0.00000000
     atom  119 type  2   force =     0.00000000    0.00000000    0.00000000
     atom  120 type  2   force =     0.00000000    0.00000000    0.00000000
     atom  121 type  1   force =     0.00000000    0.00000000    0.00000000
     atom  122 type  1   force =     0.00000000    0.00000000    0.00000000
     atom  123 type  1   force =     0.00000000    0.00000000    0.00000000
     atom  124 type  1   force =     0.00000000    0.00000000    0.00000000
     atom  125 type  1   force =     0.00000000    0.00000000    0.00000000
     atom  126 type  1   force =     0.00000000    0.00000000    0.00000000
     atom  127 type  2   force =     0.00000000    0.00000000    0.00000000
     atom  128 type  2   force =     0.00000000    0.00000000    0.00000000
     atom  129 type  2   force =     0.00000000    0.00000000    0.00000000
     atom  130 type  2   force =     0.00000000    0.00000000    0.00000000
     atom  131 type  2   force =     0.00000000    0.00000000    0.00000000
     atom  132 type  2   force =     0.00000000    0.00000000    0.00000000
     atom  133 type  2   force =     0.00000000    0.00000000    0.00000000
     atom  134 type  2   force =     0.00000000    0.00000000    0.00000000
     atom  135 type  2   force =     0.00000000    0.00000000    0.00000000
     atom  136 type  3   force =     0.00000000    0.00000000    0.00000000
     atom  137 type  4   force =     0.00000000    0.00000000    0.00000000
     atom  138 type  4   force =     0.00000000    0.00000000    0.00000000
     atom  139 type  3   force =     0.00000000    0.00000000    0.00000000
     atom  140 type  4   force =     0.00000000    0.00000000    0.00000000
     atom  141 type  4   force =     0.00000000    0.00000000    0.00000000
     atom  142 type  3   force =     0.00000000    0.00000000    0.00000000
     atom  143 type  4   force =     0.00000000    0.00000000    0.00000000
     atom  144 type  4   force =     0.00000000    0.00000000    0.00000000
     atom  145 type  3   force =     0.00000000    0.00000000    0.00000000
     atom  146 type  4   force =     0.00000000    0.00000000    0.00000000
     atom  147 type  4   force =     0.00000000    0.00000000    0.00000000
     atom  148 type  3   force =     0.00000000    0.00000000    0.00000000
     atom  149 type  4   force =     0.00000000    0.00000000    0.00000000
     atom  150 type  4   force =     0.00000000    0.00000000    0.00000000
     atom  151 type  3   force =     0.00000000    0.00000000    0.00000000
     atom  152 type  4   force =     0.00000000    0.00000000    0.00000000
     atom  153 type  4   force =     0.00000000    0.00000000    0.00000000
     atom  154 type  3   force =     0.00000000    0.00000000    0.00000000
     atom  155 type  4   force =     0.00000000    0.00000000    0.00000000
     atom  156 type  4   force =     0.00000000    0.00000000    0.00000000
     atom  157 type  3   force =     0.00000000    0.00000000    0.00000000
     atom  158 type  4   force =     0.00000000    0.00000000    0.00000000
     atom  159 type  4   force =     0.00000000    0.00000000    0.00000000
     atom  160 type  3   force =     0.00000000    0.00000000    0.00000000
     atom  161 type  4   force =     0.00000000    0.00000000    0.00000000
     atom  162 type  4   force =     0.00000000    0.00000000    0.00000000
     atom  163 type  3   force =     0.00000000    0.00000000    0.00000000
     atom  164 type  4   force =     0.00000000    0.00000000    0.00000000
     atom  165 type  4   force =     0.00000000    0.00000000    0.00000000
     atom  166 type  3   force =     0.00000000    0.00000000    0.00000000
     atom  167 type  4   force =     0.00000000    0.00000000    0.00000000
     atom  168 type  4   force =     0.00000000    0.00000000    0.00000000
     atom  169 type  3   force =     0.00000000    0.00000000    0.00000000
     atom  170 type  4   force =     0.00000000    0.00000000    0.00000000
     atom  171 type  4   force =     0.00000000    0.00000000    0.00000000
     atom  172 type  3   force =     0.00000000    0.00000000    0.00000000
     atom  173 type  4   force =     0.00000000    0.00000000    0.00000000
     atom  174 type  4   force =     0.00000000    0.00000000    0.00000000
     atom  175 type  3   force =     0.00000000    0.00000000    0.00000000
     atom  176 type  4   force =     0.00000000    0.00000000    0.00000000
     atom  177 type  4   force =     0.00000000    0.00000000    0.00000000
     atom  178 type  3   force =     0.00000000    0.00000000    0.00000000
     atom  179 type  4   force =     0.00000000    0.00000000    0.00000000
     atom  180 type  4   force =     0.00000000    0.00000000    0.00000000
     atom  181 type  3   force =     0.00000000    0.00000000    0.00000000
     atom  182 type  4   force =     0.00000000    0.00000000    0.00000000
     atom  183 type  4   force =     0.00000000    0.00000000    0.00000000
     The SCF correction term to forces
     atom    1 type  1   force =     0.00000029   -0.00000015   -0.00001634
     atom    2 type  1   force =     0.00000057    0.00000044   -0.00000826
     atom    3 type  1   force =     0.00000193    0.00000223   -0.00001597
     atom    4 type  1   force =     0.00000300    0.00000089   -0.00000565
     atom    5 type  1   force =    -0.00000044   -0.00000042    0.00000116
     atom    6 type  1   force =    -0.00000016   -0.00000072   -0.00001190
     atom    7 type  2   force =    -0.00000418   -0.00000191   -0.00002440
     atom    8 type  2   force =     0.00000359   -0.00000207   -0.00002506
     atom    9 type  2   force =     0.00000250    0.00000570   -0.00002460
     atom   10 type  2   force =    -0.00000029   -0.00000338    0.00000177
     atom   11 type  2   force =    -0.00000028   -0.00000167    0.00000083
     atom   12 type  2   force =     0.00000458    0.00000313    0.00000528
     atom   13 type  2   force =    -0.00000341    0.00000226   -0.00002887
     atom   14 type  2   force =     0.00000111    0.00000529   -0.00003192
     atom   15 type  2   force =     0.00000575    0.00000101   -0.00002999
     atom   16 type  1   force =    -0.00000120   -0.00000130   -0.00001465
     atom   17 type  1   force =    -0.00000180   -0.00000072   -0.00000998
     atom   18 type  1   force =    -0.00000131    0.00000051   -0.00001620
     atom   19 type  1   force =     0.00000049    0.00000107   -0.00000763
     atom   20 type  1   force =    -0.00000142   -0.00000215    0.00000081
     atom   21 type  1   force =    -0.00000291   -0.00000005   -0.00001152
     atom   22 type  2   force =     0.00000074   -0.00000195   -0.00002341
     atom   23 type  2   force =    -0.00000491   -0.00000036   -0.00001858
     atom   24 type  2   force =    -0.00000401   -0.00000094   -0.00002032
     atom   25 type  2   force =    -0.00000676   -0.00000252   -0.00000199
     atom   26 type  2   force =    -0.00000300   -0.00000024   -0.00000338
     atom   27 type  2   force =     0.00000002    0.00000113   -0.00000213
     atom   28 type  2   force =    -0.00000295   -0.00000142   -0.00003105
     atom   29 type  2   force =    -0.00000092    0.00000011   -0.00003206
     atom   30 type  2   force =    -0.00000151   -0.00000074   -0.00003302
     atom   31 type  1   force =    -0.00000183   -0.00000092   -0.00001747
     atom   32 type  1   force =     0.00000007    0.00000000   -0.00000820
     atom   33 type  1   force =     0.00000148   -0.00000217   -0.00001494
     atom   34 type  1   force =     0.00000054   -0.00000000   -0.00000793
     atom   35 type  1   force =    -0.00000273   -0.00000045    0.00000042
     atom   36 type  1   force =     0.00000148    0.00000084   -0.00001225
     atom   37 type  2   force =    -0.00000649   -0.00000362   -0.00002951
     atom   38 type  2   force =     0.00000146   -0.00000211   -0.00002585
     atom   39 type  2   force =    -0.00000226    0.00000057   -0.00002525
     atom   40 type  2   force =    -0.00000582    0.00000078   -0.00000090
     atom   41 type  2   force =     0.00000282    0.00000098    0.00000034
     atom   42 type  2   force =     0.00000398    0.00000107   -0.00000193
     atom   43 type  2   force =    -0.00000643   -0.00000328   -0.00003026
     atom   44 type  2   force =     0.00000678   -0.00000052   -0.00002702
     atom   45 type  2   force =    -0.00000227   -0.00000278   -0.00002819
     atom   46 type  1   force =    -0.00000117    0.00000166   -0.00001483
     atom   47 type  1   force =    -0.00000037   -0.00000082   -0.00000892
     atom   48 type  1   force =    -0.00000199    0.00000044   -0.00001546
     atom   49 type  1   force =    -0.00000232    0.00000083   -0.00000725
     atom   50 type  1   force =    -0.00000188    0.00000162    0.00000028
     atom   51 type  1   force =    -0.00000112    0.00000086   -0.00001184
     atom   52 type  2   force =     0.00000359    0.00000451   -0.00002035
     atom   53 type  2   force =    -0.00000061    0.00000549   -0.00001984
     atom   54 type  2   force =    -0.00000285    0.00000015   -0.00002159
     atom   55 type  2   force =    -0.00000348    0.00000102   -0.00000132
     atom   56 type  2   force =    -0.00000038   -0.00000489    0.00000301
     atom   57 type  2   force =    -0.00000395    0.00000005   -0.00000116
     atom   58 type  2   force =    -0.00000462    0.00000480   -0.00003620
     atom   59 type  2   force =    -0.00000157   -0.00000506   -0.00003072
     atom   60 type  2   force =    -0.00000200    0.00000220   -0.00003108
     atom   61 type  1   force =     0.00000101   -0.00000153   -0.00001920
     atom   62 type  1   force =    -0.00000085   -0.00000290   -0.00001040
     atom   63 type  1   force =     0.00000022   -0.00000139   -0.00001644
     atom   64 type  1   force =    -0.00000068   -0.00000219   -0.00000661
     atom   65 type  1   force =     0.00000053   -0.00000205    0.00000128
     atom   66 type  1   force =     0.00000149   -0.00000078   -0.00001251
     atom   67 type  2   force =    -0.00000063   -0.00000372   -0.00002810
     atom   68 type  2   force =     0.00000388   -0.00000540   -0.00003252
     atom   69 type  2   force =     0.00000165    0.00000309   -0.00002809
     atom   70 type  2   force =     0.00000254   -0.00000659    0.00000253
     atom   71 type  2   force =    -0.00000361   -0.00000435    0.00000147
     atom   72 type  2   force =    -0.00000177   -0.00000620    0.00000052
     atom   73 type  2   force =     0.00000303   -0.00000258   -0.00003253
     atom   74 type  2   force =    -0.00000394   -0.00000595   -0.00003538
     atom   75 type  2   force =    -0.00000118   -0.00000355   -0.00003431
     atom   76 type  1   force =    -0.00000076   -0.00000048   -0.00001895
     atom   77 type  1   force =    -0.00000308    0.00000104   -0.00001033
     atom   78 type  1   force =    -0.00000144    0.00000012   -0.00001652
     atom   79 type  1   force =    -0.00000321   -0.00000185   -0.00000817
     atom   80 type  1   force =    -0.00000036   -0.00000030    0.00000280
     atom   81 type  1   force =    -0.00000100   -0.00000138   -0.00001264
     atom   82 type  2   force =    -0.00000112   -0.00000278   -0.00002832
     atom   83 type  2   force =     0.00000100    0.00000061   -0.00002777
     atom   84 type  2   force =    -0.00000146   -0.00000108   -0.00002688
     atom   85 type  2   force =    -0.00000383    0.00000217    0.00000215
     atom   86 type  2   force =    -0.00000598    0.00000291   -0.00000160
     atom   87 type  2   force =    -0.00000821   -0.00000129   -0.00000125
     atom   88 type  2   force =    -0.00000022   -0.00000396   -0.00003685
     atom   89 type  2   force =    -0.00000501    0.00000097   -0.00003167
     atom   90 type  2   force =    -0.00000455   -0.00000134   -0.00003594
     atom   91 type  1   force =     0.00000046    0.00000251   -0.00001930
     atom   92 type  1   force =    -0.00000003    0.00000242   -0.00001008
     atom   93 type  1   force =     0.00000087    0.00000089   -0.00001762
     atom   94 type  1   force =    -0.00000034    0.00000260   -0.00000779
     atom   95 type  1   force =     0.00000201    0.00000213    0.00000292
     atom   96 type  1   force =     0.00000188    0.00000260   -0.00001189
     atom   97 type  2   force =    -0.00000369    0.00000268   -0.00002865
     atom   98 type  2   force =     0.00000330    0.00000161   -0.00002826
     atom   99 type  2   force =    -0.00000047    0.00000909   -0.00003296
     atom  100 type  2   force =     0.00000330    0.00000349    0.00000179
     atom  101 type  2   force =     0.00000077    0.00000312   -0.00000082
     atom  102 type  2   force =    -0.00000019    0.00000528   -0.00000019
     atom  103 type  2   force =     0.00000398    0.00000352   -0.00003269
     atom  104 type  2   force =    -0.00000210    0.00000264   -0.00003487
     atom  105 type  2   force =     0.00000006    0.00000616   -0.00003349
     atom  106 type  1   force =     0.00000045    0.00000072   -0.00001728
     atom  107 type  1   force =     0.00000277   -0.00000038   -0.00000984
     atom  108 type  1   force =     0.00000072    0.00000151   -0.00001638
     atom  109 type  1   force =     0.00000007    0.00000014   -0.00000830
     atom  110 type  1   force =     0.00000077    0.00000094   -0.00000028
     atom  111 type  1   force =     0.00000136   -0.00000296   -0.00001211
     atom  112 type  2   force =    -0.00000144   -0.00000087   -0.00002229
     atom  113 type  2   force =     0.00000273   -0.00000100   -0.00002211
     atom  114 type  2   force =    -0.00000007    0.00000278   -0.00002373
     atom  115 type  2   force =     0.00000326    0.00000148   -0.00000297
     atom  116 type  2   force =     0.00000712   -0.00000201   -0.00000101
     atom  117 type  2   force =     0.00000187   -0.00000138   -0.00000111
     atom  118 type  2   force =     0.00000086    0.00000429   -0.00003464
     atom  119 type  2   force =     0.00000514   -0.00000344   -0.00003170
     atom  120 type  2   force =     0.00000289    0.00000087   -0.00003450
     atom  121 type  1   force =     0.00000260   -0.00000081   -0.00001387
     atom  122 type  1   force =     0.00000274    0.00000104   -0.00000936
     atom  123 type  1   force =    -0.00000034   -0.00000219   -0.00001735
     atom  124 type  1   force =     0.00000254   -0.00000145   -0.00000761
     atom  125 type  1   force =     0.00000328    0.00000051    0.00000092
     atom  126 type  1   force =    -0.00000095    0.00000191   -0.00001362
     atom  127 type  2   force =     0.00000397   -0.00000393   -0.00002189
     atom  128 type  2   force =     0.00000265    0.00000091   -0.00002694
     atom  129 type  2   force =     0.00000300   -0.00000581   -0.00002364
     atom  130 type  2   force =     0.00000795    0.00000237    0.00000343
     atom  131 type  2   force =     0.00000525    0.00000680    0.00000567
     atom  132 type  2   force =     0.00000473   -0.00000027    0.00000323
     atom  133 type  2   force =     0.00000542   -0.00000122   -0.00003095
     atom  134 type  2   force =     0.00000020    0.00000234   -0.00003703
     atom  135 type  2   force =     0.00000659   -0.00000092   -0.00003298
     atom  136 type  3   force =    -0.00001129   -0.00000278    0.00000957
     atom  137 type  4   force =    -0.00000620   -0.00000292    0.00001072
     atom  138 type  4   force =    -0.00000552   -0.00000389    0.00001292
     atom  139 type  3   force =    -0.00000847   -0.00000643    0.00001114
     atom  140 type  4   force =    -0.00000254   -0.00000161    0.00000828
     atom  141 type  4   force =    -0.00000357   -0.00000296    0.00001905
     atom  142 type  3   force =     0.00000031   -0.00000374    0.00001122
     atom  143 type  4   force =     0.00000120   -0.00000216    0.00000784
     atom  144 type  4   force =    -0.00000142   -0.00000234    0.00001843
     atom  145 type  3   force =    -0.00000321   -0.00000036    0.00000885
     atom  146 type  4   force =    -0.00000450   -0.00000038    0.00001058
     atom  147 type  4   force =    -0.00000574   -0.00000025    0.00001340
     atom  148 type  3   force =    -0.00000381   -0.00000840    0.00001117
     atom  149 type  4   force =    -0.00000120   -0.00000242    0.00001766
     atom  150 type  4   force =    -0.00000223   -0.00000192    0.00000644
     atom  151 type  3   force =    -0.00001370   -0.00000625    0.00000948
     atom  152 type  4   force =    -0.00000387    0.00000188    0.00001594
     atom  153 type  4   force =    -0.00000249   -0.00000069    0.00001014
     atom  154 type  3   force =    -0.00001188   -0.00000183    0.00001541
     atom  155 type  4   force =    -0.00000094    0.00000120    0.00001185
     atom  156 type  4   force =    -0.00000106    0.00000069    0.00001813
     atom  157 type  3   force =    -0.00000331   -0.00000299    0.00001635
     atom  158 type  4   force =     0.00000395   -0.00000160    0.00001111
     atom  159 type  4   force =     0.00000251   -0.00000016    0.00001664
     atom  160 type  3   force =     0.00000939   -0.00000154    0.00001341
     atom  161 type  4   force =     0.00000597   -0.00000427    0.00001242
     atom  162 type  4   force =     0.00000605   -0.00000283    0.00001302
     atom  163 type  3   force =     0.00000912   -0.00000435    0.00000941
     atom  164 type  4   force =     0.00000144    0.00000249    0.00001671
     atom  165 type  4   force =     0.00000222    0.00000220    0.00000775
     atom  166 type  3   force =     0.00000121    0.00000783    0.00001153
     atom  167 type  4   force =     0.00000040    0.00000507    0.00001342
     atom  168 type  4   force =     0.00000298    0.00000459    0.00001383
     atom  169 type  3   force =     0.00000260    0.00001092    0.00001681
     atom  170 type  4   force =     0.00000212    0.00000252    0.00000972
     atom  171 type  4   force =     0.00000348    0.00000438    0.00001767
     atom  172 type  3   force =     0.00000612    0.00000489    0.00001155
     atom  173 type  4   force =     0.00000153   -0.00000238    0.00000747
     atom  174 type  4   force =     0.00000181   -0.00000239    0.00001687
     atom  175 type  3   force =     0.00001280   -0.00000303    0.00001012
     atom  176 type  4   force =     0.00000466   -0.00000134    0.00000924
     atom  177 type  4   force =     0.00000405   -0.00000100    0.00001525
     atom  178 type  3   force =     0.00001073    0.00000560    0.00000910
     atom  179 type  4   force =    -0.00000066    0.00000311    0.00001040
     atom  180 type  4   force =    -0.00000021    0.00000332    0.00001297
     atom  181 type  3   force =     0.00000357    0.00001206    0.00001085
     atom  182 type  4   force =    -0.00000163    0.00000277    0.00000743
     atom  183 type  4   force =    -0.00000034    0.00000314    0.00001615

     DFT-D3 dispersion contribution to forces:
     atom    1 type  1   force =     0.00000000    0.00000005    0.00215186
     atom    2 type  1   force =     0.00001064   -0.00000512   -0.00008597
     atom    3 type  1   force =    -0.00000074   -0.00000039    0.00303077
     atom    4 type  1   force =    -0.00004820   -0.00002798   -0.00018337
     atom    5 type  1   force =     0.00000012    0.00000058   -0.00025979
     atom    6 type  1   force =    -0.00000001   -0.00000000    0.00406563
     atom    7 type  2   force =     0.00005070   -0.00000754    0.00153828
     atom    8 type  2   force =    -0.00001883    0.00004768    0.00153828
     atom    9 type  2   force =    -0.00003187   -0.00004014    0.00153828
     atom   10 type  2   force =     0.00000230   -0.00007680   -0.00036085
     atom   11 type  2   force =     0.00004331    0.00012428   -0.00039738
     atom   12 type  2   force =    -0.00010055   -0.00001495   -0.00030156
     atom   13 type  2   force =    -0.00016800   -0.00007414    0.00011429
     atom   14 type  2   force =     0.00014834   -0.00010876    0.00011713
     atom   15 type  2   force =     0.00001979    0.00018259    0.00011432
     atom   16 type  1   force =     0.00000043    0.00000214    0.00215972
     atom   17 type  1   force =     0.00002668    0.00001610   -0.00011587
     atom   18 type  1   force =    -0.00000016   -0.00000017    0.00303213
     atom   19 type  1   force =    -0.00003477    0.00002033   -0.00012022
     atom   20 type  1   force =    -0.00003257   -0.00001511   -0.00015511
     atom   21 type  1   force =    -0.00000014   -0.00000012    0.00406616
     atom   22 type  2   force =     0.00005078   -0.00000755    0.00153816
     atom   23 type  2   force =    -0.00001882    0.00004779    0.00153816
     atom   24 type  2   force =    -0.00003199   -0.00004028    0.00153820
     atom   25 type  2   force =     0.00001922   -0.00002380   -0.00031528
     atom   26 type  2   force =     0.00001739    0.00010274   -0.00030372
     atom   27 type  2   force =    -0.00007214   -0.00008875   -0.00036367
     atom   28 type  2   force =    -0.00016909   -0.00007315    0.00011612
     atom   29 type  2   force =     0.00014941   -0.00010947    0.00011727
     atom   30 type  2   force =     0.00002041    0.00018388    0.00011784
     atom   31 type  1   force =     0.00000291   -0.00000094    0.00215904
     atom   32 type  1   force =    -0.00000026    0.00001173   -0.00008662
     atom   33 type  1   force =     0.00000025   -0.00000006    0.00303211
     atom   34 type  1   force =     0.00000024   -0.00004052   -0.00012040
     atom   35 type  1   force =    -0.00002054   -0.00002048   -0.00015221
     atom   36 type  1   force =     0.00000001   -0.00000001    0.00406564
     atom   37 type  2   force =     0.00005079   -0.00000750    0.00153820
     atom   38 type  2   force =    -0.00001888    0.00004774    0.00153812
     atom   39 type  2   force =    -0.00003210   -0.00004017    0.00153820
     atom   40 type  2   force =     0.00006358   -0.00007964   -0.00030158
     atom   41 type  2   force =     0.00006567    0.00004068   -0.00036103
     atom   42 type  2   force =    -0.00012893   -0.00002497   -0.00039779
     atom   43 type  2   force =    -0.00016837   -0.00007396    0.00011877
     atom   44 type  2   force =     0.00014794   -0.00010987    0.00011591
     atom   45 type  2   force =     0.00002004    0.00018283    0.00011710
     atom   46 type  1   force =     0.00000161   -0.00000135    0.00215928
     atom   47 type  1   force =    -0.00001035   -0.00000571   -0.00008609
     atom   48 type  1   force =     0.00000071   -0.00000046    0.00303079
     atom   49 type  1   force =     0.00004846   -0.00002781   -0.00018327
     atom   50 type  1   force =     0.00000298    0.00003652   -0.00015593
     atom   51 type  1   force =    -0.00000001    0.00000002    0.00406563
     atom   52 type  2   force =     0.00005079   -0.00000760    0.00153816
     atom   53 type  2   force =    -0.00001888    0.00004784    0.00153820
     atom   54 type  2   force =    -0.00003193   -0.00004020    0.00153816
     atom   55 type  2   force =     0.00008573   -0.00009906   -0.00039782
     atom   56 type  2   force =     0.00003701    0.00009523   -0.00030120
     atom   57 type  2   force =    -0.00006807    0.00003672   -0.00036087
     atom   58 type  2   force =    -0.00016860   -0.00007456    0.00011945
     atom   59 type  2   force =     0.00014820   -0.00010838    0.00011441
     atom   60 type  2   force =     0.00002116    0.00018307    0.00011593
     atom   61 type  1   force =    -0.00000070    0.00000296    0.00215931
     atom   62 type  1   force =     0.00000028    0.00001393   -0.00006274
     atom   63 type  1   force =     0.00000003    0.00000088    0.00303099
     atom   64 type  1   force =    -0.00000021    0.00005673   -0.00018222
     atom   65 type  1   force =     0.00002691   -0.00000748   -0.00015182
     atom   66 type  1   force =    -0.00000001   -0.00000013    0.00406572
     atom   67 type  2   force =     0.00005084   -0.00000771    0.00153820
     atom   68 type  2   force =    -0.00001890    0.00004774    0.00153820
     atom   69 type  2   force =    -0.00003191   -0.00004022    0.00153812
     atom   70 type  2   force =     0.00002515   -0.00000083   -0.00041777
     atom   71 type  2   force =     0.00000886    0.00005552   -0.00031984
     atom   72 type  2   force =    -0.00003017   -0.00004316   -0.00032373
     atom   73 type  2   force =    -0.00016838   -0.00007404    0.00011720
     atom   74 type  2   force =     0.00014887   -0.00010875    0.00011977
     atom   75 type  2   force =     0.00002024    0.00018452    0.00011737
     atom   76 type  1   force =    -0.00000001   -0.00000010    0.00216411
     atom   77 type  1   force =     0.00001204   -0.00000775   -0.00006422
     atom   78 type  1   force =     0.00000075   -0.00000011    0.00303597
     atom   79 type  1   force =     0.00000875    0.00000674   -0.00011320
     atom   80 type  1   force =    -0.00000020   -0.00000139   -0.00004458
     atom   81 type  1   force =    -0.00000011    0.00000007    0.00406572
     atom   82 type  2   force =     0.00005101   -0.00000758    0.00153791
     atom   83 type  2   force =    -0.00001893    0.00004796    0.00153791
     atom   84 type  2   force =    -0.00003208   -0.00004037    0.00153791
     atom   85 type  2   force =     0.00004376   -0.00003574   -0.00032037
     atom   86 type  2   force =    -0.00002228    0.00004785   -0.00032429
     atom   87 type  2   force =    -0.00001325   -0.00002212   -0.00041819
     atom   88 type  2   force =    -0.00016920   -0.00007387    0.00012066
     atom   89 type  2   force =     0.00014965   -0.00010981    0.00011713
     atom   90 type  2   force =     0.00002066    0.00018338    0.00012058
     atom   91 type  1   force =    -0.00000220   -0.00000200    0.00215890
     atom   92 type  1   force =     0.00000088   -0.00003052   -0.00011647
     atom   93 type  1   force =    -0.00000044   -0.00000060    0.00303573
     atom   94 type  1   force =     0.00000188   -0.00001106   -0.00011434
     atom   95 type  1   force =    -0.00000645    0.00002830   -0.00015276
     atom   96 type  1   force =    -0.00000003    0.00000019    0.00406616
     atom   97 type  2   force =     0.00005079   -0.00000752    0.00153812
     atom   98 type  2   force =    -0.00001874    0.00004789    0.00153820
     atom   99 type  2   force =    -0.00003189   -0.00004023    0.00153820
     atom  100 type  2   force =     0.00008044   -0.00006610   -0.00030373
     atom  101 type  2   force =    -0.00004077    0.00010716   -0.00036375
     atom  102 type  2   force =    -0.00003019   -0.00000443   -0.00031569
     atom  103 type  2   force =    -0.00016990   -0.00007470    0.00011706
     atom  104 type  2   force =     0.00014903   -0.00010956    0.00011771
     atom  105 type  2   force =     0.00002017    0.00018282    0.00011859
     atom  106 type  1   force =    -0.00000000    0.00000002    0.00215926
     atom  107 type  1   force =    -0.00002748    0.00001461   -0.00011582
     atom  108 type  1   force =    -0.00000009    0.00000026    0.00303212
     atom  109 type  1   force =     0.00003456    0.00002084   -0.00012044
     atom  110 type  1   force =    -0.00000009    0.00000009   -0.00020440
     atom  111 type  1   force =     0.00000018   -0.00000006    0.00406616
     atom  112 type  2   force =     0.00005073   -0.00000758    0.00153840
     atom  113 type  2   force =    -0.00001881    0.00004773    0.00153840
     atom  114 type  2   force =    -0.00003193   -0.00004015    0.00153840
     atom  115 type  2   force =     0.00011298   -0.00001828   -0.00036381
     atom  116 type  2   force =     0.00001088    0.00002818   -0.00031525
     atom  117 type  2   force =    -0.00009786   -0.00003626   -0.00030342
     atom  118 type  2   force =    -0.00016949   -0.00007463    0.00011722
     atom  119 type  2   force =     0.00014820   -0.00010887    0.00011882
     atom  120 type  2   force =     0.00002009    0.00018414    0.00011726
     atom  121 type  1   force =    -0.00000201   -0.00000077    0.00215939
     atom  122 type  1   force =    -0.00001243   -0.00000714   -0.00006449
     atom  123 type  1   force =    -0.00000031    0.00000065    0.00303594
     atom  124 type  1   force =    -0.00001072    0.00000316   -0.00011321
     atom  125 type  1   force =     0.00002978   -0.00002156   -0.00015590
     atom  126 type  1   force =     0.00000012    0.00000005    0.00406572
     atom  127 type  2   force =     0.00005088   -0.00000756    0.00153820
     atom  128 type  2   force =    -0.00001885    0.00004775    0.00153816
     atom  129 type  2   force =    -0.00003198   -0.00004018    0.00153816
     atom  130 type  2   force =     0.00005276   -0.00000484   -0.00032452
     atom  131 type  2   force =    -0.00001199    0.00002238   -0.00041844
     atom  132 type  2   force =    -0.00005279   -0.00002096   -0.00032032
     atom  133 type  2   force =    -0.00016943   -0.00007430    0.00011778
     atom  134 type  2   force =     0.00014852   -0.00010964    0.00012042
     atom  135 type  2   force =     0.00001973    0.00018324    0.00011956
     atom  136 type  3   force =     0.00000030    0.00000058   -0.00231950
     atom  137 type  4   force =     0.00001119   -0.00003120   -0.00417335
     atom  138 type  4   force =    -0.00000083    0.00015972   -0.00066928
     atom  139 type  3   force =     0.00000387   -0.00005788   -0.00236504
     atom  140 type  4   force =    -0.00003860   -0.00006846   -0.00409277
     atom  141 type  4   force =     0.00014084    0.00022988   -0.00063856
     atom  142 type  3   force =    -0.00003341   -0.00001926   -0.00241627
     atom  143 type  4   force =    -0.00008891    0.00000594   -0.00411123
     atom  144 type  4   force =     0.00027208    0.00000697   -0.00065408
     atom  145 type  3   force =    -0.00004463    0.00003328   -0.00236968
     atom  146 type  4   force =    -0.00003271    0.00000531   -0.00417275
     atom  147 type  4   force =     0.00013731   -0.00007681   -0.00066934
     atom  148 type  3   force =    -0.00005366    0.00002657   -0.00236521
     atom  149 type  4   force =    -0.00002282    0.00000065   -0.00417947
     atom  150 type  4   force =    -0.00000502   -0.00001000   -0.00068763
     atom  151 type  3   force =    -0.00000774   -0.00005457   -0.00237004
     atom  152 type  4   force =     0.00003858   -0.00008131   -0.00411136
     atom  153 type  4   force =    -0.00014293    0.00023231   -0.00065443
     atom  154 type  3   force =     0.00000539   -0.00005817   -0.00240486
     atom  155 type  4   force =    -0.00000005   -0.00000014   -0.00399617
     atom  156 type  4   force =     0.00000015   -0.00000055   -0.00062092
     atom  157 type  3   force =    -0.00005213    0.00002265   -0.00240490
     atom  158 type  4   force =    -0.00004005    0.00006670   -0.00409171
     atom  159 type  4   force =     0.00012861   -0.00023703   -0.00063899
     atom  160 type  3   force =     0.00000048    0.00003924   -0.00241639
     atom  161 type  4   force =     0.00000035    0.00002536   -0.00416117
     atom  162 type  4   force =    -0.00000406   -0.00017027   -0.00073674
     atom  163 type  3   force =    -0.00000433   -0.00000601   -0.00243774
     atom  164 type  4   force =     0.00002376   -0.00001393   -0.00416195
     atom  165 type  4   force =    -0.00014753    0.00008930   -0.00073600
     atom  166 type  3   force =     0.00003258   -0.00002080   -0.00241625
     atom  167 type  4   force =     0.00007866    0.00000101   -0.00409237
     atom  168 type  4   force =    -0.00027015    0.00000684   -0.00063817
     atom  169 type  3   force =     0.00004670    0.00003187   -0.00240504
     atom  170 type  4   force =     0.00005020    0.00007326   -0.00411059
     atom  171 type  4   force =    -0.00012926   -0.00023993   -0.00065449
     atom  172 type  3   force =     0.00005251    0.00002230   -0.00237000
     atom  173 type  4   force =     0.00001040   -0.00002153   -0.00417939
     atom  174 type  4   force =     0.00001301    0.00000445   -0.00068754
     atom  175 type  3   force =     0.00000894    0.00000105   -0.00243783
     atom  176 type  4   force =    -0.00002386   -0.00001244   -0.00416221
     atom  177 type  4   force =     0.00015172    0.00008307   -0.00073586
     atom  178 type  3   force =    -0.00000410    0.00000703   -0.00243752
     atom  179 type  4   force =     0.00001192    0.00001854   -0.00418017
     atom  180 type  4   force =    -0.00000704    0.00000926   -0.00068719
     atom  181 type  3   force =     0.00004922    0.00003211   -0.00236473
     atom  182 type  4   force =     0.00002167    0.00002419   -0.00417273
     atom  183 type  4   force =    -0.00013663   -0.00007930   -0.00066958

     Total force =     0.928397     Total SCF correction =     0.000258

     DFT-D3 dispersion Force =     0.026757


     Computing stress (Cartesian axis) and pressure


     negative rho (up, down):  5.312E-03 5.312E-03
          total   stress  (Ry/bohr**3)                   (kbar)     P=       -2.63
   0.00002611  -0.00000003   0.00000001            3.84       -0.00        0.00
  -0.00000003   0.00002611   0.00000017           -0.00        3.84        0.02
   0.00000001   0.00000017  -0.00010588            0.00        0.02      -15.58

     kinetic stress (kbar)   4347.45     -0.00      0.00
                               -0.00   4347.45      0.03
                                0.00      0.03   4358.39

     local   stress (kbar)-796760.21     -0.00     -0.01
                               -0.00-796760.19     -0.44
                               -0.01     -0.44 793050.59

     nonloc. stress (kbar)   1593.29     -0.00     -0.00
                               -0.00   1593.29     -0.00
                               -0.00     -0.00   1577.73

     hartree stress (kbar) 397038.51      0.00      0.00
                                0.00 397038.51      0.10
                                0.00      0.10-395013.28

     exc-cor stress (kbar)   2049.57      0.00      0.00
                                0.00   2049.57      0.00
                                0.00      0.00   2046.82

     corecor stress (kbar)  -3113.85     -0.00     -0.00
                               -0.00  -3113.85     -0.00
                               -0.00     -0.00  -3111.46

     ewald   stress (kbar) 394857.14      0.00      0.01
                                0.00 394857.11      0.34
                                0.01      0.34-402918.34

     hubbard stress (kbar)      0.00      0.00      0.00
                                0.00      0.00      0.00
                                0.00      0.00      0.00

     DFT-D   stress (kbar)     -8.07     -0.00     -0.00
                               -0.00     -8.07     -0.00
                               -0.00     -0.00     -6.02

     XDM     stress (kbar)      0.00      0.00      0.00
                                0.00      0.00      0.00
                                0.00      0.00      0.00

     dft-nl  stress (kbar)      0.00      0.00      0.00
                                0.00      0.00      0.00
                                0.00      0.00      0.00

     TS-vdW  stress (kbar)      0.00      0.00      0.00
                                0.00      0.00      0.00
                                0.00      0.00      0.00

     MDB     stress (kbar)      0.00      0.00      0.00
                                0.00      0.00      0.00
                                0.00      0.00      0.00

     3D-RISM stress (kbar)      0.00      0.00      0.00
                                0.00      0.00      0.00
                                0.00      0.00      0.00


     Writing all to output data dir ./REDACTED_PATH :
     XML data file, charge density, pseudopotentials, collected wavefunctions

     init_run     :     12.47s CPU     14.09s WALL (       1 calls)
     electrons    :   1229.73s CPU   1252.72s WALL (       1 calls)
     forces       :     17.61s CPU     18.29s WALL (       1 calls)
     force_dftd3  :      1.33s CPU      1.39s WALL (       1 calls)
     stress       :     47.72s CPU     48.54s WALL (       1 calls)
     stres_dftd3  :      0.28s CPU      0.34s WALL (       1 calls)

     Called by init_run:
     wfcinit      :      3.77s CPU      4.73s WALL (       1 calls)
     potinit      :      1.81s CPU      2.11s WALL (       1 calls)
     hinit0       :      1.99s CPU      2.06s WALL (       1 calls)

     Called by electrons:
     c_bands      :   1006.12s CPU   1022.96s WALL (      33 calls)
     sum_band     :    166.80s CPU    170.55s WALL (      33 calls)
     v_of_rho     :     10.40s CPU     11.19s WALL (      33 calls)
     v_h          :      0.37s CPU      0.48s WALL (      33 calls)
     v_xc         :     10.65s CPU     11.36s WALL (      35 calls)
     newd         :     13.82s CPU     14.14s WALL (      33 calls)
     PAW_pot      :      8.41s CPU      8.51s WALL (      33 calls)
     mix_rho      :     22.10s CPU     22.58s WALL (      33 calls)
     energy_dftd3 :      0.10s CPU      0.10s WALL (       1 calls)

     Called by c_bands:
     init_us_2    :     21.20s CPU     21.54s WALL (     136 calls)
     cegterg      :    961.66s CPU    977.95s WALL (      66 calls)

     Called by sum_band:
     sum_band:wei :      0.18s CPU      0.18s WALL (      33 calls)
     sum_band:loo :    141.42s CPU    143.03s WALL (      33 calls)
     sum_band:buf :      1.88s CPU      1.93s WALL (      66 calls)
     sum_band:ini :     10.25s CPU     10.38s WALL (      66 calls)
     sum_band:cal :     91.57s CPU     92.66s WALL (      66 calls)
     sum_band:bec :      0.65s CPU      0.65s WALL (      66 calls)
     addusdens    :     18.63s CPU     20.53s WALL (      33 calls)
                                        0.00s GPU  (      33 calls)
     addusd:skk   :      0.78s CPU      0.79s WALL (     132 calls)
                                        0.00s GPU  (     132 calls)

     Called by *egterg:
     cdiaghg      :     20.17s CPU     20.79s WALL (     140 calls)
     cegterg:over :     93.08s CPU     94.48s WALL (      78 calls)
     cegterg:upda :     55.61s CPU     57.27s WALL (      78 calls)
     cegterg:last :     73.34s CPU     74.78s WALL (      78 calls)
     cdiaghg:chol :      1.54s CPU      1.56s WALL (     140 calls)
     cdiaghg:inve :      0.08s CPU      0.08s WALL (     140 calls)
     cdiaghg:para :      6.85s CPU      7.13s WALL (     280 calls)
     h_psi        :    509.46s CPU    516.32s WALL (     144 calls)
     s_psi        :    165.78s CPU    166.91s WALL (     144 calls)
     g_psi        :      1.31s CPU      1.33s WALL (      78 calls)

     Called by h_psi:
     h_psi:calbec :    183.72s CPU    185.80s WALL (     144 calls)
     vloc_psi     :    157.30s CPU    158.95s WALL (     144 calls)
                                        0.00s GPU  (     144 calls)
     add_vuspsi   :    166.00s CPU    167.15s WALL (     144 calls)

     General routines
     calbec       :    321.88s CPU    325.57s WALL (     244 calls)
     fft          :      8.78s CPU      9.99s WALL (     865 calls)
     ffts         :      6.36s CPU      6.44s WALL (    3945 calls)
     fftw         :    186.76s CPU    188.66s WALL (  215088 calls)
     interpolate  :      0.94s CPU      1.05s WALL (      66 calls)

     Parallel routines

     PAW routines
     PAW_pot      :      8.41s CPU      8.51s WALL (      33 calls)

     PWSCF        :   1312.46s CPU   1340.31s WALL


   This run was terminated on:   9:33: 1  31Aug2026            

=------------------------------------------------------------------------------=
   JOB DONE.
=------------------------------------------------------------------------------=
Note: The following floating-point exceptions are signalling: IEEE_UNDERFLOW_FLAG IEEE_DENORMAL
Note: The following floating-point exceptions are signalling: IEEE_UNDERFLOW_FLAG IEEE_DENORMAL
Note: The following floating-point exceptions are signalling: IEEE_UNDERFLOW_FLAG IEEE_DENORMAL
Note: The following floating-point exceptions are signalling: IEEE_UNDERFLOW_FLAG IEEE_DENORMAL
Note: The following floating-point exceptions are signalling: IEEE_UNDERFLOW_FLAG IEEE_DENORMAL
Note: The following floating-point exceptions are signalling: IEEE_UNDERFLOW_FLAG IEEE_DENORMAL
Note: The following floating-point exceptions are signalling: IEEE_UNDERFLOW_FLAG IEEE_DENORMAL
Note: The following floating-point exceptions are signalling: IEEE_UNDERFLOW_FLAG IEEE_DENORMAL
Note: The following floating-point exceptions are signalling: IEEE_UNDERFLOW_FLAG IEEE_DENORMAL
Note: The following floating-point exceptions are signalling: IEEE_UNDERFLOW_FLAG IEEE_DENORMAL
Note: The following floating-point exceptions are signalling: IEEE_UNDERFLOW_FLAG IEEE_DENORMAL
Note: The following floating-point exceptions are signalling: IEEE_UNDERFLOW_FLAG IEEE_DENORMAL
Note: The following floating-point exceptions are signalling: IEEE_UNDERFLOW_FLAG IEEE_DENORMAL
Note: The following floating-point exceptions are signalling: IEEE_UNDERFLOW_FLAG IEEE_DENORMAL
Note: The following floating-point exceptions are signalling: IEEE_UNDERFLOW_FLAG IEEE_DENORMAL
Note: The following floating-point exceptions are signalling: IEEE_UNDERFLOW_FLAG IEEE_DENORMAL
Note: The following floating-point exceptions are signalling: IEEE_UNDERFLOW_FLAG IEEE_DENORMAL
Note: The following floating-point exceptions are signalling: IEEE_UNDERFLOW_FLAG IEEE_DENORMAL
Note: The following floating-point exceptions are signalling: IEEE_UNDERFLOW_FLAG IEEE_DENORMAL
Note: The following floating-point exceptions are signalling: IEEE_UNDERFLOW_FLAG IEEE_DENORMAL
Note: The following floating-point exceptions are signalling: IEEE_UNDERFLOW_FLAG IEEE_DENORMAL
Note: The following floating-point exceptions are signalling: IEEE_UNDERFLOW_FLAG IEEE_DENORMAL
Note: The following floating-point exceptions are signalling: IEEE_UNDERFLOW_FLAG IEEE_DENORMAL
Note: The following floating-point exceptions are signalling: IEEE_UNDERFLOW_FLAG IEEE_DENORMAL
Note: The following floating-point exceptions are signalling: IEEE_UNDERFLOW_FLAG IEEE_DENORMAL
Note: The following floating-point exceptions are signalling: IEEE_UNDERFLOW_FLAG IEEE_DENORMAL
Note: The following floating-point exceptions are signalling: IEEE_UNDERFLOW_FLAG IEEE_DENORMAL
Note: The following floating-point exceptions are signalling: IEEE_UNDERFLOW_FLAG IEEE_DENORMAL
Note: The following floating-point exceptions are signalling: IEEE_UNDERFLOW_FLAG IEEE_DENORMAL
Note: The following floating-point exceptions are signalling: IEEE_UNDERFLOW_FLAG IEEE_DENORMAL
Note: The following floating-point exceptions are signalling: IEEE_UNDERFLOW_FLAG IEEE_DENORMAL
Note: The following floating-point exceptions are signalling: IEEE_UNDERFLOW_FLAG IEEE_DENORMAL
Note: The following floating-point exceptions are signalling: IEEE_UNDERFLOW_FLAG IEEE_DENORMAL
Note: The following floating-point exceptions are signalling: IEEE_UNDERFLOW_FLAG IEEE_DENORMAL
Note: The following floating-point exceptions are signalling: IEEE_UNDERFLOW_FLAG IEEE_DENORMAL
Note: The following floating-point exceptions are signalling: IEEE_UNDERFLOW_FLAG IEEE_DENORMAL
Note: The following floating-point exceptions are signalling: IEEE_UNDERFLOW_FLAG IEEE_DENORMAL
Note: The following floating-point exceptions are signalling: IEEE_UNDERFLOW_FLAG IEEE_DENORMAL
Note: The following floating-point exceptions are signalling: IEEE_UNDERFLOW_FLAG IEEE_DENORMAL
Note: The following floating-point exceptions are signalling: IEEE_UNDERFLOW_FLAG IEEE_DENORMAL
Note: The following floating-point exceptions are signalling: IEEE_UNDERFLOW_FLAG IEEE_DENORMAL
Note: The following floating-point exceptions are signalling: IEEE_UNDERFLOW_FLAG IEEE_DENORMAL
Note: The following floating-point exceptions are signalling: IEEE_UNDERFLOW_FLAG IEEE_DENORMAL
Note: The following floating-point exceptions are signalling: IEEE_UNDERFLOW_FLAG IEEE_DENORMAL
Note: The following floating-point exceptions are signalling: IEEE_UNDERFLOW_FLAG IEEE_DENORMAL
Note: The following floating-point exceptions are signalling: IEEE_UNDERFLOW_FLAG IEEE_DENORMAL
Note: The following floating-point exceptions are signalling: IEEE_UNDERFLOW_FLAG IEEE_DENORMAL
Note: The following floating-point exceptions are signalling: IEEE_UNDERFLOW_FLAG IEEE_DENORMAL
Note: The following floating-point exceptions are signalling: IEEE_UNDERFLOW_FLAG IEEE_DENORMAL
Note: The following floating-point exceptions are signalling: IEEE_UNDERFLOW_FLAG IEEE_DENORMAL
Note: The following floating-point exceptions are signalling: IEEE_UNDERFLOW_FLAG IEEE_DENORMAL
Note: The following floating-point exceptions are signalling: IEEE_UNDERFLOW_FLAG IEEE_DENORMAL
Note: The following floating-point exceptions are signalling: IEEE_UNDERFLOW_FLAG IEEE_DENORMAL
Note: The following floating-point exceptions are signalling: IEEE_UNDERFLOW_FLAG IEEE_DENORMAL
Note: The following floating-point exceptions are signalling: IEEE_UNDERFLOW_FLAG IEEE_DENORMAL
Note: The following floating-point exceptions are signalling: IEEE_UNDERFLOW_FLAG IEEE_DENORMAL
Note: The following floating-point exceptions are signalling: IEEE_UNDERFLOW_FLAG IEEE_DENORMAL
Note: The following floating-point exceptions are signalling: IEEE_UNDERFLOW_FLAG IEEE_DENORMAL
Note: The following floating-point exceptions are signalling: IEEE_UNDERFLOW_FLAG IEEE_DENORMAL
Note: The following floating-point exceptions are signalling: IEEE_UNDERFLOW_FLAG IEEE_DENORMAL
Note: The following floating-point exceptions are signalling: IEEE_UNDERFLOW_FLAG IEEE_DENORMAL
Note: The following floating-point exceptions are signalling: IEEE_UNDERFLOW_FLAG IEEE_DENORMAL
Note: The following floating-point exceptions are signalling: IEEE_UNDERFLOW_FLAG IEEE_DENORMAL
Note: The following floating-point exceptions are signalling: IEEE_UNDERFLOW_FLAG IEEE_DENORMAL
Note: The following floating-point exceptions are signalling: IEEE_UNDERFLOW_FLAG IEEE_DENORMAL
Note: The following floating-point exceptions are signalling: IEEE_UNDERFLOW_FLAG IEEE_DENORMAL
Note: The following floating-point exceptions are signalling: IEEE_UNDERFLOW_FLAG IEEE_DENORMAL
Note: The following floating-point exceptions are signalling: IEEE_UNDERFLOW_FLAG IEEE_DENORMAL
Note: The following floating-point exceptions are signalling: IEEE_UNDERFLOW_FLAG IEEE_DENORMAL
Note: The following floating-point exceptions are signalling: IEEE_UNDERFLOW_FLAG IEEE_DENORMAL
Note: The following floating-point exceptions are signalling: IEEE_UNDERFLOW_FLAG IEEE_DENORMAL
Note: The following floating-point exceptions are signalling: IEEE_UNDERFLOW_FLAG IEEE_DENORMAL
Note: The following floating-point exceptions are signalling: IEEE_UNDERFLOW_FLAG IEEE_DENORMAL
Note: The following floating-point exceptions are signalling: IEEE_UNDERFLOW_FLAG IEEE_DENORMAL
Note: The following floating-point exceptions are signalling: IEEE_UNDERFLOW_FLAG IEEE_DENORMAL
Note: The following floating-point exceptions are signalling: IEEE_UNDERFLOW_FLAG IEEE_DENORMAL
Note: The following floating-point exceptions are signalling: IEEE_UNDERFLOW_FLAG IEEE_DENORMAL
Note: The following floating-point exceptions are signalling: IEEE_UNDERFLOW_FLAG IEEE_DENORMAL
Note: The following floating-point exceptions are signalling: IEEE_UNDERFLOW_FLAG IEEE_DENORMAL
Note: The following floating-point exceptions are signalling: IEEE_UNDERFLOW_FLAG IEEE_DENORMAL
Note: The following floating-point exceptions are signalling: IEEE_UNDERFLOW_FLAG IEEE_DENORMAL
Note: The following floating-point exceptions are signalling: IEEE_UNDERFLOW_FLAG IEEE_DENORMAL
Note: The following floating-point exceptions are signalling: IEEE_UNDERFLOW_FLAG IEEE_DENORMAL
Note: The following floating-point exceptions are signalling: IEEE_UNDERFLOW_FLAG IEEE_DENORMAL
Note: The following floating-point exceptions are signalling: IEEE_UNDERFLOW_FLAG IEEE_DENORMAL
Note: The following floating-point exceptions are signalling: IEEE_UNDERFLOW_FLAG IEEE_DENORMAL
Note: The following floating-point exceptions are signalling: IEEE_UNDERFLOW_FLAG IEEE_DENORMAL
Note: The following floating-point exceptions are signalling: IEEE_UNDERFLOW_FLAG IEEE_DENORMAL
Note: The following floating-point exceptions are signalling: IEEE_UNDERFLOW_FLAG IEEE_DENORMAL
Note: The following floating-point exceptions are signalling: IEEE_UNDERFLOW_FLAG IEEE_DENORMAL
Note: The following floating-point exceptions are signalling: IEEE_UNDERFLOW_FLAG IEEE_DENORMAL
Note: The following floating-point exceptions are signalling: IEEE_UNDERFLOW_FLAG IEEE_DENORMAL
Note: The following floating-point exceptions are signalling: IEEE_UNDERFLOW_FLAG IEEE_DENORMAL
Note: The following floating-point exceptions are signalling: IEEE_UNDERFLOW_FLAG IEEE_DENORMAL
Note: The following floating-point exceptions are signalling: IEEE_UNDERFLOW_FLAG IEEE_DENORMAL
Note: The following floating-point exceptions are signalling: IEEE_UNDERFLOW_FLAG IEEE_DENORMAL
Note: The following floating-point exceptions are signalling: IEEE_UNDERFLOW_FLAG IEEE_DENORMAL
Note: The following floating-point exceptions are signalling: IEEE_UNDERFLOW_FLAG IEEE_DENORMAL
Note: The following floating-point exceptions are signalling: IEEE_UNDERFLOW_FLAG IEEE_DENORMAL
Note: The following floating-point exceptions are signalling: IEEE_UNDERFLOW_FLAG IEEE_DENORMAL
Note: The following floating-point exceptions are signalling: IEEE_UNDERFLOW_FLAG IEEE_DENORMAL
Note: The following floating-point exceptions are signalling: IEEE_UNDERFLOW_FLAG IEEE_DENORMAL
Note: The following floating-point exceptions are signalling: IEEE_UNDERFLOW_FLAG IEEE_DENORMAL
Note: The following floating-point exceptions are signalling: IEEE_UNDERFLOW_FLAG IEEE_DENORMAL
Note: The following floating-point exceptions are signalling: IEEE_UNDERFLOW_FLAG IEEE_DENORMAL
Note: The following floating-point exceptions are signalling: IEEE_UNDERFLOW_FLAG IEEE_DENORMAL
Note: The following floating-point exceptions are signalling: IEEE_UNDERFLOW_FLAG IEEE_DENORMAL
Note: The following floating-point exceptions are signalling: IEEE_UNDERFLOW_FLAG IEEE_DENORMAL
Note: The following floating-point exceptions are signalling: IEEE_UNDERFLOW_FLAG IEEE_DENORMAL
Note: The following floating-point exceptions are signalling: IEEE_UNDERFLOW_FLAG IEEE_DENORMAL
Note: The following floating-point exceptions are signalling: IEEE_UNDERFLOW_FLAG IEEE_DENORMAL
Note: The following floating-point exceptions are signalling: IEEE_UNDERFLOW_FLAG IEEE_DENORMAL
Note: The following floating-point exceptions are signalling: IEEE_UNDERFLOW_FLAG IEEE_DENORMAL
Note: The following floating-point exceptions are signalling: IEEE_UNDERFLOW_FLAG IEEE_DENORMAL
Note: The following floating-point exceptions are signalling: IEEE_UNDERFLOW_FLAG IEEE_DENORMAL
Note: The following floating-point exceptions are signalling: IEEE_UNDERFLOW_FLAG IEEE_DENORMAL
Note: The following floating-point exceptions are signalling: IEEE_UNDERFLOW_FLAG IEEE_DENORMAL
Note: The following floating-point exceptions are signalling: IEEE_UNDERFLOW_FLAG IEEE_DENORMAL
Note: The following floating-point exceptions are signalling: IEEE_UNDERFLOW_FLAG IEEE_DENORMAL
Note: The following floating-point exceptions are signalling: IEEE_UNDERFLOW_FLAG IEEE_DENORMAL
Note: The following floating-point exceptions are signalling: IEEE_UNDERFLOW_FLAG IEEE_DENORMAL
Note: The following floating-point exceptions are signalling: IEEE_UNDERFLOW_FLAG IEEE_DENORMAL
Note: The following floating-point exceptions are signalling: IEEE_UNDERFLOW_FLAG IEEE_DENORMAL
Note: The following floating-point exceptions are signalling: IEEE_UNDERFLOW_FLAG IEEE_DENORMAL
Note: The following floating-point exceptions are signalling: IEEE_UNDERFLOW_FLAG IEEE_DENORMAL
Note: The following floating-point exceptions are signalling: IEEE_UNDERFLOW_FLAG IEEE_DENORMAL
Note: The following floating-point exceptions are signalling: IEEE_UNDERFLOW_FLAG IEEE_DENORMAL
Note: The following floating-point exceptions are signalling: IEEE_UNDERFLOW_FLAG IEEE_DENORMAL
Note: The following floating-point exceptions are signalling: IEEE_UNDERFLOW_FLAG IEEE_DENORMAL
Note: The following floating-point exceptions are signalling: IEEE_UNDERFLOW_FLAG IEEE_DENORMAL
Note: The following floating-point exceptions are signalling: IEEE_UNDERFLOW_FLAG IEEE_DENORMAL
Note: The following floating-point exceptions are signalling: IEEE_UNDERFLOW_FLAG IEEE_DENORMAL
Note: The following floating-point exceptions are signalling: IEEE_UNDERFLOW_FLAG IEEE_DENORMAL
Note: The following floating-point exceptions are signalling: IEEE_UNDERFLOW_FLAG IEEE_DENORMAL
Note: The following floating-point exceptions are signalling: IEEE_UNDERFLOW_FLAG IEEE_DENORMAL
Note: The following floating-point exceptions are signalling: IEEE_UNDERFLOW_FLAG IEEE_DENORMAL
Note: The following floating-point exceptions are signalling: IEEE_UNDERFLOW_FLAG IEEE_DENORMAL
Note: The following floating-point exceptions are signalling: IEEE_UNDERFLOW_FLAG IEEE_DENORMAL
Note: The following floating-point exceptions are signalling: IEEE_UNDERFLOW_FLAG IEEE_DENORMAL
Note: The following floating-point exceptions are signalling: IEEE_UNDERFLOW_FLAG IEEE_DENORMAL
Note: The following floating-point exceptions are signalling: IEEE_UNDERFLOW_FLAG IEEE_DENORMAL
Note: The following floating-point exceptions are signalling: IEEE_UNDERFLOW_FLAG IEEE_DENORMAL
Note: The following floating-point exceptions are signalling: IEEE_UNDERFLOW_FLAG IEEE_DENORMAL
Note: The following floating-point exceptions are signalling: IEEE_UNDERFLOW_FLAG IEEE_DENORMAL
Note: The following floating-point exceptions are signalling: IEEE_UNDERFLOW_FLAG IEEE_DENORMAL
Note: The following floating-point exceptions are signalling: IEEE_UNDERFLOW_FLAG IEEE_DENORMAL
Note: The following floating-point exceptions are signalling: IEEE_UNDERFLOW_FLAG IEEE_DENORMAL
Note: The following floating-point exceptions are signalling: IEEE_UNDERFLOW_FLAG IEEE_DENORMAL
Note: The following floating-point exceptions are signalling: IEEE_UNDERFLOW_FLAG IEEE_DENORMAL
Note: The following floating-point exceptions are signalling: IEEE_UNDERFLOW_FLAG IEEE_DENORMAL
Note: The following floating-point exceptions are signalling: IEEE_UNDERFLOW_FLAG IEEE_DENORMAL
Note: The following floating-point exceptions are signalling: IEEE_UNDERFLOW_FLAG IEEE_DENORMAL
Note: The following floating-point exceptions are signalling: IEEE_UNDERFLOW_FLAG IEEE_DENORMAL
Note: The following floating-point exceptions are signalling: IEEE_UNDERFLOW_FLAG IEEE_DENORMAL
Note: The following floating-point exceptions are signalling: IEEE_UNDERFLOW_FLAG IEEE_DENORMAL
Note: The following floating-point exceptions are signalling: IEEE_UNDERFLOW_FLAG IEEE_DENORMAL
Note: The following floating-point exceptions are signalling: IEEE_UNDERFLOW_FLAG IEEE_DENORMAL
Note: The following floating-point exceptions are signalling: IEEE_UNDERFLOW_FLAG IEEE_DENORMAL
Note: The following floating-point exceptions are signalling: IEEE_UNDERFLOW_FLAG IEEE_DENORMAL
Note: The following floating-point exceptions are signalling: IEEE_UNDERFLOW_FLAG IEEE_DENORMAL
Note: The following floating-point exceptions are signalling: IEEE_UNDERFLOW_FLAG IEEE_DENORMAL
Note: The following floating-point exceptions are signalling: IEEE_UNDERFLOW_FLAG IEEE_DENORMAL
Note: The following floating-point exceptions are signalling: IEEE_UNDERFLOW_FLAG IEEE_DENORMAL
Note: The following floating-point exceptions are signalling: IEEE_UNDERFLOW_FLAG IEEE_DENORMAL
Note: The following floating-point exceptions are signalling: IEEE_UNDERFLOW_FLAG IEEE_DENORMAL
Note: The following floating-point exceptions are signalling: IEEE_UNDERFLOW_FLAG IEEE_DENORMAL
Note: The following floating-point exceptions are signalling: IEEE_UNDERFLOW_FLAG IEEE_DENORMAL
Note: The following floating-point exceptions are signalling: IEEE_UNDERFLOW_FLAG IEEE_DENORMAL
Note: The following floating-point exceptions are signalling: IEEE_UNDERFLOW_FLAG IEEE_DENORMAL
Note: The following floating-point exceptions are signalling: IEEE_UNDERFLOW_FLAG IEEE_DENORMAL
Note: The following floating-point exceptions are signalling: IEEE_UNDERFLOW_FLAG IEEE_DENORMAL
Note: The following floating-point exceptions are signalling: IEEE_UNDERFLOW_FLAG IEEE_DENORMAL
Note: The following floating-point exceptions are signalling: IEEE_UNDERFLOW_FLAG IEEE_DENORMAL
Note: The following floating-point exceptions are signalling: IEEE_UNDERFLOW_FLAG IEEE_DENORMAL
Note: The following floating-point exceptions are signalling: IEEE_UNDERFLOW_FLAG IEEE_DENORMAL
Note: The following floating-point exceptions are signalling: IEEE_UNDERFLOW_FLAG IEEE_DENORMAL
Note: The following floating-point exceptions are signalling: IEEE_UNDERFLOW_FLAG IEEE_DENORMAL
Note: The following floating-point exceptions are signalling: IEEE_UNDERFLOW_FLAG IEEE_DENORMAL
Note: The following floating-point exceptions are signalling: IEEE_UNDERFLOW_FLAG IEEE_DENORMAL
Note: The following floating-point exceptions are signalling: IEEE_UNDERFLOW_FLAG IEEE_DENORMAL
Note: The following floating-point exceptions are signalling: IEEE_UNDERFLOW_FLAG IEEE_DENORMAL
Note: The following floating-point exceptions are signalling: IEEE_UNDERFLOW_FLAG IEEE_DENORMAL
Note: The following floating-point exceptions are signalling: IEEE_UNDERFLOW_FLAG IEEE_DENORMAL
Note: The following floating-point exceptions are signalling: IEEE_UNDERFLOW_FLAG IEEE_DENORMAL
Note: The following floating-point exceptions are signalling: IEEE_UNDERFLOW_FLAG IEEE_DENORMAL
Note: The following floating-point exceptions are signalling: IEEE_UNDERFLOW_FLAG IEEE_DENORMAL
Note: The following floating-point exceptions are signalling: IEEE_UNDERFLOW_FLAG IEEE_DENORMAL
Note: The following floating-point exceptions are signalling: IEEE_UNDERFLOW_FLAG IEEE_DENORMAL
Note: The following floating-point exceptions are signalling: IEEE_UNDERFLOW_FLAG IEEE_DENORMAL
Note: The following floating-point exceptions are signalling: IEEE_UNDERFLOW_FLAG IEEE_DENORMAL
Note: The following floating-point exceptions are signalling: IEEE_UNDERFLOW_FLAG IEEE_DENORMAL
Note: The following floating-point exceptions are signalling: IEEE_UNDERFLOW_FLAG IEEE_DENORMAL
Note: The following floating-point exceptions are signalling: IEEE_UNDERFLOW_FLAG IEEE_DENORMAL
Note: The following floating-point exceptions are signalling: IEEE_UNDERFLOW_FLAG IEEE_DENORMAL
Note: The following floating-point exceptions are signalling: IEEE_UNDERFLOW_FLAG IEEE_DENORMAL
Note: The following floating-point exceptions are signalling: IEEE_UNDERFLOW_FLAG IEEE_DENORMAL
Note: The following floating-point exceptions are signalling: IEEE_UNDERFLOW_FLAG IEEE_DENORMAL
Note: The following floating-point exceptions are signalling: IEEE_UNDERFLOW_FLAG IEEE_DENORMAL
Note: The following floating-point exceptions are signalling: IEEE_UNDERFLOW_FLAG IEEE_DENORMAL
Note: The following floating-point exceptions are signalling: IEEE_UNDERFLOW_FLAG IEEE_DENORMAL
Note: The following floating-point exceptions are signalling: IEEE_UNDERFLOW_FLAG IEEE_DENORMAL
Note: The following floating-point exceptions are signalling: IEEE_UNDERFLOW_FLAG IEEE_DENORMAL
Note: The following floating-point exceptions are signalling: IEEE_UNDERFLOW_FLAG IEEE_DENORMAL
Note: The following floating-point exceptions are signalling: IEEE_UNDERFLOW_FLAG IEEE_DENORMAL
Note: The following floating-point exceptions are signalling: IEEE_UNDERFLOW_FLAG IEEE_DENORMAL
Note: The following floating-point exceptions are signalling: IEEE_UNDERFLOW_FLAG IEEE_DENORMAL
Note: The following floating-point exceptions are signalling: IEEE_UNDERFLOW_FLAG IEEE_DENORMAL
Note: The following floating-point exceptions are signalling: IEEE_UNDERFLOW_FLAG IEEE_DENORMAL
Note: The following floating-point exceptions are signalling: IEEE_UNDERFLOW_FLAG IEEE_DENORMAL
Note: The following floating-point exceptions are signalling: IEEE_UNDERFLOW_FLAG IEEE_DENORMAL
Note: The following floating-point exceptions are signalling: IEEE_UNDERFLOW_FLAG IEEE_DENORMAL
Note: The following floating-point exceptions are signalling: IEEE_UNDERFLOW_FLAG IEEE_DENORMAL
Note: The following floating-point exceptions are signalling: IEEE_UNDERFLOW_FLAG IEEE_DENORMAL
Note: The following floating-point exceptions are signalling: IEEE_UNDERFLOW_FLAG IEEE_DENORMAL
Note: The following floating-point exceptions are signalling: IEEE_UNDERFLOW_FLAG IEEE_DENORMAL
Note: The following floating-point exceptions are signalling: IEEE_UNDERFLOW_FLAG IEEE_DENORMAL
Note: The following floating-point exceptions are signalling: IEEE_UNDERFLOW_FLAG IEEE_DENORMAL
Note: The following floating-point exceptions are signalling: IEEE_UNDERFLOW_FLAG IEEE_DENORMAL
Note: The following floating-point exceptions are signalling: IEEE_UNDERFLOW_FLAG IEEE_DENORMAL
Note: The following floating-point exceptions are signalling: IEEE_UNDERFLOW_FLAG IEEE_DENORMAL
Note: The following floating-point exceptions are signalling: IEEE_UNDERFLOW_FLAG IEEE_DENORMAL
Note: The following floating-point exceptions are signalling: IEEE_UNDERFLOW_FLAG IEEE_DENORMAL
Note: The following floating-point exceptions are signalling: IEEE_UNDERFLOW_FLAG IEEE_DENORMAL
Note: The following floating-point exceptions are signalling: IEEE_UNDERFLOW_FLAG IEEE_DENORMAL
Note: The following floating-point exceptions are signalling: IEEE_UNDERFLOW_FLAG IEEE_DENORMAL
Note: The following floating-point exceptions are signalling: IEEE_UNDERFLOW_FLAG IEEE_DENORMAL
Note: The following floating-point exceptions are signalling: IEEE_UNDERFLOW_FLAG IEEE_DENORMAL
Note: The following floating-point exceptions are signalling: IEEE_UNDERFLOW_FLAG IEEE_DENORMAL
Note: The following floating-point exceptions are signalling: IEEE_UNDERFLOW_FLAG IEEE_DENORMAL
Note: The following floating-point exceptions are signalling: IEEE_UNDERFLOW_FLAG IEEE_DENORMAL
Note: The following floating-point exceptions are signalling: IEEE_UNDERFLOW_FLAG IEEE_DENORMAL
Note: The following floating-point exceptions are signalling: IEEE_UNDERFLOW_FLAG IEEE_DENORMAL
Note: The following floating-point exceptions are signalling: IEEE_UNDERFLOW_FLAG IEEE_DENORMAL
Note: The following floating-point exceptions are signalling: IEEE_UNDERFLOW_FLAG IEEE_DENORMAL
Note: The following floating-point exceptions are signalling: IEEE_UNDERFLOW_FLAG IEEE_DENORMAL
Note: The following floating-point exceptions are signalling: IEEE_UNDERFLOW_FLAG IEEE_DENORMAL
Note: The following floating-point exceptions are signalling: IEEE_UNDERFLOW_FLAG IEEE_DENORMAL
Note: The following floating-point exceptions are signalling: IEEE_UNDERFLOW_FLAG IEEE_DENORMAL
Note: The following floating-point exceptions are signalling: IEEE_UNDERFLOW_FLAG IEEE_DENORMAL
Note: The following floating-point exceptions are signalling: IEEE_UNDERFLOW_FLAG IEEE_DENORMAL
Note: The following floating-point exceptions are signalling: IEEE_UNDERFLOW_FLAG IEEE_DENORMAL
Note: The following floating-point exceptions are signalling: IEEE_UNDERFLOW_FLAG IEEE_DENORMAL
Note: The following floating-point exceptions are signalling: IEEE_UNDERFLOW_FLAG IEEE_DENORMAL
Note: The following floating-point exceptions are signalling: IEEE_UNDERFLOW_FLAG IEEE_DENORMAL
Note: The following floating-point exceptions are signalling: IEEE_UNDERFLOW_FLAG IEEE_DENORMAL
Note: The following floating-point exceptions are signalling: IEEE_UNDERFLOW_FLAG IEEE_DENORMAL
Note: The following floating-point exceptions are signalling: IEEE_UNDERFLOW_FLAG IEEE_DENORMAL
Note: The following floating-point exceptions are signalling: IEEE_UNDERFLOW_FLAG IEEE_DENORMAL
Note: The following floating-point exceptions are signalling: IEEE_UNDERFLOW_FLAG IEEE_DENORMAL
Note: The following floating-point exceptions are signalling: IEEE_UNDERFLOW_FLAG IEEE_DENORMAL
Note: The following floating-point exceptions are signalling: IEEE_UNDERFLOW_FLAG IEEE_DENORMAL
Note: The following floating-point exceptions are signalling: IEEE_UNDERFLOW_FLAG IEEE_DENORMAL
Note: The following floating-point exceptions are signalling: IEEE_UNDERFLOW_FLAG IEEE_DENORMAL
Note: The following floating-point exceptions are signalling: IEEE_UNDERFLOW_FLAG IEEE_DENORMAL
Note: The following floating-point exceptions are signalling: IEEE_UNDERFLOW_FLAG IEEE_DENORMAL
Note: The following floating-point exceptions are signalling: IEEE_UNDERFLOW_FLAG IEEE_DENORMAL
Note: The following floating-point exceptions are signalling: IEEE_UNDERFLOW_FLAG IEEE_DENORMAL
Note: The following floating-point exceptions are signalling: IEEE_UNDERFLOW_FLAG IEEE_DENORMAL
Note: The following floating-point exceptions are signalling: IEEE_UNDERFLOW_FLAG IEEE_DENORMAL
Note: The following floating-point exceptions are signalling: IEEE_UNDERFLOW_FLAG IEEE_DENORMAL
Note: The following floating-point exceptions are signalling: IEEE_UNDERFLOW_FLAG IEEE_DENORMAL
Note: The following floating-point exceptions are signalling: IEEE_UNDERFLOW_FLAG IEEE_DENORMAL
Note: The following floating-point exceptions are signalling: IEEE_UNDERFLOW_FLAG IEEE_DENORMAL
Note: The following floating-point exceptions are signalling: IEEE_UNDERFLOW_FLAG IEEE_DENORMAL
Note: The following floating-point exceptions are signalling: IEEE_UNDERFLOW_FLAG IEEE_DENORMAL
Note: The following floating-point exceptions are signalling: IEEE_UNDERFLOW_FLAG IEEE_DENORMAL
Note: The following floating-point exceptions are signalling: IEEE_UNDERFLOW_FLAG IEEE_DENORMAL
Note: The following floating-point exceptions are signalling: IEEE_UNDERFLOW_FLAG IEEE_DENORMAL
Note: The following floating-point exceptions are signalling: IEEE_UNDERFLOW_FLAG IEEE_DENORMAL
Note: The following floating-point exceptions are signalling: IEEE_UNDERFLOW_FLAG IEEE_DENORMAL
Note: The following floating-point exceptions are signalling: IEEE_UNDERFLOW_FLAG IEEE_DENORMAL
Note: The following floating-point exceptions are signalling: IEEE_UNDERFLOW_FLAG IEEE_DENORMAL
Note: The following floating-point exceptions are signalling: IEEE_UNDERFLOW_FLAG IEEE_DENORMAL
Note: The following floating-point exceptions are signalling: IEEE_UNDERFLOW_FLAG IEEE_DENORMAL
Note: The following floating-point exceptions are signalling: IEEE_UNDERFLOW_FLAG IEEE_DENORMAL
Note: The following floating-point exceptions are signalling: IEEE_UNDERFLOW_FLAG IEEE_DENORMAL
Note: The following floating-point exceptions are signalling: IEEE_UNDERFLOW_FLAG IEEE_DENORMAL
Note: The following floating-point exceptions are signalling: IEEE_UNDERFLOW_FLAG IEEE_DENORMAL
Note: The following floating-point exceptions are signalling: IEEE_UNDERFLOW_FLAG IEEE_DENORMAL
Note: The following floating-point exceptions are signalling: IEEE_UNDERFLOW_FLAG IEEE_DENORMAL
Note: The following floating-point exceptions are signalling: IEEE_UNDERFLOW_FLAG IEEE_DENORMAL
Note: The following floating-point exceptions are signalling: IEEE_UNDERFLOW_FLAG IEEE_DENORMAL
Note: The following floating-point exceptions are signalling: IEEE_UNDERFLOW_FLAG IEEE_DENORMAL
Note: The following floating-point exceptions are signalling: IEEE_UNDERFLOW_FLAG IEEE_DENORMAL
Note: The following floating-point exceptions are signalling: IEEE_UNDERFLOW_FLAG IEEE_DENORMAL
Note: The following floating-point exceptions are signalling: IEEE_UNDERFLOW_FLAG IEEE_DENORMAL
Note: The following floating-point exceptions are signalling: IEEE_UNDERFLOW_FLAG IEEE_DENORMAL
Note: The following floating-point exceptions are signalling: IEEE_UNDERFLOW_FLAG IEEE_DENORMAL
Note: The following floating-point exceptions are signalling: IEEE_UNDERFLOW_FLAG IEEE_DENORMAL
Note: The following floating-point exceptions are signalling: IEEE_UNDERFLOW_FLAG IEEE_DENORMAL
Note: The following floating-point exceptions are signalling: IEEE_UNDERFLOW_FLAG IEEE_DENORMAL
Note: The following floating-point exceptions are signalling: IEEE_UNDERFLOW_FLAG IEEE_DENORMAL
Note: The following floating-point exceptions are signalling: IEEE_UNDERFLOW_FLAG IEEE_DENORMAL
Note: The following floating-point exceptions are signalling: IEEE_UNDERFLOW_FLAG IEEE_DENORMAL
Note: The following floating-point exceptions are signalling: IEEE_UNDERFLOW_FLAG IEEE_DENORMAL
Note: The following floating-point exceptions are signalling: IEEE_UNDERFLOW_FLAG IEEE_DENORMAL
Note: The following floating-point exceptions are signalling: IEEE_UNDERFLOW_FLAG IEEE_DENORMAL
Note: The following floating-point exceptions are signalling: IEEE_UNDERFLOW_FLAG IEEE_DENORMAL
Note: The following floating-point exceptions are signalling: IEEE_UNDERFLOW_FLAG IEEE_DENORMAL
Note: The following floating-point exceptions are signalling: IEEE_UNDERFLOW_FLAG IEEE_DENORMAL
Note: The following floating-point exceptions are signalling: IEEE_UNDERFLOW_FLAG IEEE_DENORMAL
Note: The following floating-point exceptions are signalling: IEEE_UNDERFLOW_FLAG IEEE_DENORMAL
Note: The following floating-point exceptions are signalling: IEEE_UNDERFLOW_FLAG IEEE_DENORMAL
Note: The following floating-point exceptions are signalling: IEEE_UNDERFLOW_FLAG IEEE_DENORMAL
Note: The following floating-point exceptions are signalling: IEEE_UNDERFLOW_FLAG IEEE_DENORMAL
Note: The following floating-point exceptions are signalling: IEEE_UNDERFLOW_FLAG IEEE_DENORMAL
Note: The following floating-point exceptions are signalling: IEEE_UNDERFLOW_FLAG IEEE_DENORMAL
Note: The following floating-point exceptions are signalling: IEEE_UNDERFLOW_FLAG IEEE_DENORMAL
Note: The following floating-point exceptions are signalling: IEEE_UNDERFLOW_FLAG IEEE_DENORMAL
Note: The following floating-point exceptions are signalling: IEEE_UNDERFLOW_FLAG IEEE_DENORMAL
Note: The following floating-point exceptions are signalling: IEEE_UNDERFLOW_FLAG IEEE_DENORMAL
Note: The following floating-point exceptions are signalling: IEEE_UNDERFLOW_FLAG IEEE_DENORMAL
Note: The following floating-point exceptions are signalling: IEEE_UNDERFLOW_FLAG IEEE_DENORMAL
Note: The following floating-point exceptions are signalling: IEEE_UNDERFLOW_FLAG IEEE_DENORMAL
Note: The following floating-point exceptions are signalling: IEEE_UNDERFLOW_FLAG IEEE_DENORMAL
Note: The following floating-point exceptions are signalling: IEEE_UNDERFLOW_FLAG IEEE_DENORMAL
Note: The following floating-point exceptions are signalling: IEEE_UNDERFLOW_FLAG IEEE_DENORMAL
Note: The following floating-point exceptions are signalling: IEEE_UNDERFLOW_FLAG IEEE_DENORMAL
Note: The following floating-point exceptions are signalling: IEEE_UNDERFLOW_FLAG IEEE_DENORMAL
Note: The following floating-point exceptions are signalling: IEEE_UNDERFLOW_FLAG IEEE_DENORMAL
Note: The following floating-point exceptions are signalling: IEEE_UNDERFLOW_FLAG IEEE_DENORMAL
Note: The following floating-point exceptions are signalling: IEEE_UNDERFLOW_FLAG IEEE_DENORMAL
Note: The following floating-point exceptions are signalling: IEEE_UNDERFLOW_FLAG IEEE_DENORMAL
Note: The following floating-point exceptions are signalling: IEEE_UNDERFLOW_FLAG IEEE_DENORMAL
Note: The following floating-point exceptions are signalling: IEEE_UNDERFLOW_FLAG IEEE_DENORMAL
Note: The following floating-point exceptions are signalling: IEEE_UNDERFLOW_FLAG IEEE_DENORMAL
Note: The following floating-point exceptions are signalling: IEEE_UNDERFLOW_FLAG IEEE_DENORMAL
Note: The following floating-point exceptions are signalling: IEEE_UNDERFLOW_FLAG IEEE_DENORMAL
Note: The following floating-point exceptions are signalling: IEEE_UNDERFLOW_FLAG IEEE_DENORMAL
Note: The following floating-point exceptions are signalling: IEEE_UNDERFLOW_FLAG IEEE_DENORMAL
Note: The following floating-point exceptions are signalling: IEEE_UNDERFLOW_FLAG IEEE_DENORMAL
Note: The following floating-point exceptions are signalling: IEEE_UNDERFLOW_FLAG IEEE_DENORMAL
Note: The following floating-point exceptions are signalling: IEEE_UNDERFLOW_FLAG IEEE_DENORMAL
Note: The following floating-point exceptions are signalling: IEEE_UNDERFLOW_FLAG IEEE_DENORMAL
Note: The following floating-point exceptions are signalling: IEEE_UNDERFLOW_FLAG IEEE_DENORMAL
Note: The following floating-point exceptions are signalling: IEEE_UNDERFLOW_FLAG IEEE_DENORMAL
Note: The following floating-point exceptions are signalling: IEEE_UNDERFLOW_FLAG IEEE_DENORMAL
Note: The following floating-point exceptions are signalling: IEEE_UNDERFLOW_FLAG IEEE_DENORMAL
Note: The following floating-point exceptions are signalling: IEEE_UNDERFLOW_FLAG IEEE_DENORMAL
Note: The following floating-point exceptions are signalling: IEEE_UNDERFLOW_FLAG IEEE_DENORMAL
Note: The following floating-point exceptions are signalling: IEEE_UNDERFLOW_FLAG IEEE_DENORMAL
Note: The following floating-point exceptions are signalling: IEEE_UNDERFLOW_FLAG IEEE_DENORMAL
Note: The following floating-point exceptions are signalling: IEEE_UNDERFLOW_FLAG IEEE_DENORMAL
Note: The following floating-point exceptions are signalling: IEEE_UNDERFLOW_FLAG IEEE_DENORMAL
Note: The following floating-point exceptions are signalling: IEEE_UNDERFLOW_FLAG IEEE_DENORMAL
Note: The following floating-point exceptions are signalling: IEEE_UNDERFLOW_FLAG IEEE_DENORMAL
Note: The following floating-point exceptions are signalling: IEEE_UNDERFLOW_FLAG IEEE_DENORMAL
Note: The following floating-point exceptions are signalling: IEEE_UNDERFLOW_FLAG IEEE_DENORMAL
Note: The following floating-point exceptions are signalling: IEEE_UNDERFLOW_FLAG IEEE_DENORMAL
Note: The following floating-point exceptions are signalling: IEEE_UNDERFLOW_FLAG IEEE_DENORMAL
Note: The following floating-point exceptions are signalling: IEEE_UNDERFLOW_FLAG IEEE_DENORMAL
Note: The following floating-point exceptions are signalling: IEEE_UNDERFLOW_FLAG IEEE_DENORMAL
Note: The following floating-point exceptions are signalling: IEEE_UNDERFLOW_FLAG IEEE_DENORMAL
Note: The following floating-point exceptions are signalling: IEEE_UNDERFLOW_FLAG IEEE_DENORMAL
Note: The following floating-point exceptions are signalling: IEEE_UNDERFLOW_FLAG IEEE_DENORMAL
Note: The following floating-point exceptions are signalling: IEEE_UNDERFLOW_FLAG IEEE_DENORMAL
Note: The following floating-point exceptions are signalling: IEEE_UNDERFLOW_FLAG IEEE_DENORMAL
Note: The following floating-point exceptions are signalling: IEEE_UNDERFLOW_FLAG IEEE_DENORMAL
Note: The following floating-point exceptions are signalling: IEEE_UNDERFLOW_FLAG IEEE_DENORMAL
Note: The following floating-point exceptions are signalling: IEEE_UNDERFLOW_FLAG IEEE_DENORMAL
Note: The following floating-point exceptions are signalling: IEEE_UNDERFLOW_FLAG IEEE_DENORMAL
Note: The following floating-point exceptions are signalling: IEEE_UNDERFLOW_FLAG IEEE_DENORMAL
Note: The following floating-point exceptions are signalling: IEEE_UNDERFLOW_FLAG IEEE_DENORMAL
Note: The following floating-point exceptions are signalling: IEEE_UNDERFLOW_FLAG IEEE_DENORMAL
Note: The following floating-point exceptions are signalling: IEEE_UNDERFLOW_FLAG IEEE_DENORMAL
Note: The following floating-point exceptions are signalling: IEEE_UNDERFLOW_FLAG IEEE_DENORMAL
Note: The following floating-point exceptions are signalling: IEEE_UNDERFLOW_FLAG IEEE_DENORMAL
Note: The following floating-point exceptions are signalling: IEEE_UNDERFLOW_FLAG IEEE_DENORMAL
Note: The following floating-point exceptions are signalling: IEEE_UNDERFLOW_FLAG IEEE_DENORMAL
Note: The following floating-point exceptions are signalling: IEEE_UNDERFLOW_FLAG IEEE_DENORMAL
Note: The following floating-point exceptions are signalling: IEEE_UNDERFLOW_FLAG IEEE_DENORMAL
Note: The following floating-point exceptions are signalling: IEEE_UNDERFLOW_FLAG IEEE_DENORMAL
Note: The following floating-point exceptions are signalling: IEEE_UNDERFLOW_FLAG IEEE_DENORMAL
Note: The following floating-point exceptions are signalling: IEEE_UNDERFLOW_FLAG IEEE_DENORMAL
Note: The following floating-point exceptions are signalling: IEEE_UNDERFLOW_FLAG IEEE_DENORMAL
Note: The following floating-point exceptions are signalling: IEEE_UNDERFLOW_FLAG IEEE_DENORMAL
Note: The following floating-point exceptions are signalling: IEEE_UNDERFLOW_FLAG IEEE_DENORMAL
Note: The following floating-point exceptions are signalling: IEEE_UNDERFLOW_FLAG IEEE_DENORMAL
Note: The following floating-point exceptions are signalling: IEEE_UNDERFLOW_FLAG IEEE_DENORMAL
Note: The following floating-point exceptions are signalling: IEEE_UNDERFLOW_FLAG IEEE_DENORMAL
Note: The following floating-point exceptions are signalling: IEEE_UNDERFLOW_FLAG IEEE_DENORMAL
Note: The following floating-point exceptions are signalling: IEEE_UNDERFLOW_FLAG IEEE_DENORMAL
Note: The following floating-point exceptions are signalling: IEEE_UNDERFLOW_FLAG IEEE_DENORMAL
Note: The following floating-point exceptions are signalling: IEEE_UNDERFLOW_FLAG IEEE_DENORMAL
