
     Program PWSCF v.7.5 starts on 31Aug2026 at 15:37:48 

     This program is part of the open-source Quantum ESPRESSO suite
     for quantum simulation of materials; please cite
         "P. Giannozzi et al., J. Phys.:Condens. Matter 21 395502 (2009);
         "P. Giannozzi et al., J. Phys.:Condens. Matter 29 465901 (2017);
         "P. Giannozzi et al., J. Chem. Phys. 152 154105 (2020);
          URL http://www.quantum-espresso.org", 
     in publications or presentations arising from this work. More details at
     http://www.quantum-espresso.org/quote

     Parallel version (MPI & OpenMP), running on     384 processor cores
     Number of MPI processes:               384
     Threads/MPI process:                     1

     MPI processes distributed on     2 nodes
     339008 MiB available memory on the printing compute node when the environment starts

     Reading input from ./REDACTED_PATH

     Current dimensions of program PWSCF are:
     Max number of different atomic species (ntypx) = 10
     Max number of k-points (npk) =  40000
     Max angular momentum in pseudopotentials (lmaxx) =  4
     file Al.pbe-n-kjpaw_psl.1.0.0.UPF: wavefunction(s)  3S 3P renormalized
     file O.pbe-n-kjpaw_psl.0.1.UPF: wavefunction(s)  2P renormalized
     file Nb.pbe-spn-kjpaw_psl.0.3.0.UPF: wavefunction(s)  4S 4P renormalized
     file N.pbe-n-kjpaw_psl.1.0.0.UPF: wavefunction(s)  2S renormalized

     K-points division:     npool     =       4
     R & G space division:  proc/nbgrp/npool/nimage =      96
     Subspace diagonalization in iterative solution of the eigenvalue problem:
     one sub-group per band group will be used
     ELPA distributed-memory algorithm (size of sub-group:  8*  8 procs)


     Parallelization info
     --------------------
     sticks:   dense  smooth     PW     G-vecs:    dense   smooth      PW
     Min         209     104     27                75427    26664    3659
     Max         210     105     28                75451    26685    3678
     Sum       20065   10033   2677              7241989  2560523  352613

     Using Slab Decomposition


     Title: 
     K2 free-spin continuation stack certify                                    


     bravais-lattice index     =            0
     lattice parameter (alat)  =      26.9796  a.u.
     unit-cell volume          =   53606.0115 (a.u.)^3
     number of atoms/cell      =          245
     number of atomic types    =            6
     number of electrons       =      1296.00
     number of Kohn-Sham states=          800
     kinetic-energy cutoff     =      50.0000  Ry
     charge density cutoff     =     400.0000  Ry
     scf convergence threshold =      1.0E-08
     mixing beta               =       0.0030
     number of iterations used =           24  local-TF  mixing
     Exchange-correlation= SLA  PW   PBX  PBC
                           (   1   4   3   4   0   0   0)

     celldm(1)=  26.979621  celldm(2)=   0.000000  celldm(3)=   0.000000
     celldm(4)=   0.000000  celldm(5)=   0.000000  celldm(6)=   0.000000

     crystal axes: (cart. coord. in units of alat)
               a(1) = (   1.000000   0.000000   0.000000 )  
               a(2) = (  -0.500000   0.866025   0.000000 )  
               a(3) = (   0.000000   0.000000   3.151923 )  

     reciprocal axes: (cart. coord. in units 2 pi/alat)
               b(1) = (  1.000000  0.577351 -0.000000 )  
               b(2) = (  0.000000  1.154701  0.000000 )  
               b(3) = (  0.000000 -0.000000  0.317267 )  


     PseudoPot. # 1 for Al read from file:
     ./REDACTED_PATH
     MD5 check sum: cfc449ca30b5f3223ec38ddd88ac046d
     Pseudo is Projector augmented-wave + core cor, Zval =  3.0
     Generated using "atomic" code by A. Dal Corso  v.5.1
     Shape of augmentation charge: PSQ
     Using radial grid of 1135 points,  6 beta functions with: 
                l(1) =   0
                l(2) =   0
                l(3) =   1
                l(4) =   1
                l(5) =   2
                l(6) =   2
     Q(r) pseudized with 0 coefficients 


     PseudoPot. # 2 for O  read from file:
     ./REDACTED_PATH
     MD5 check sum: 0234752ac141de4415c5fc33072bef88
     Pseudo is Projector augmented-wave + core cor, Zval =  6.0
     Generated using "atomic" code by A. Dal Corso  v.5.0.99 svn rev. 10869
     Shape of augmentation charge: BESSEL
     Using radial grid of 1095 points,  4 beta functions with: 
                l(1) =   0
                l(2) =   0
                l(3) =   1
                l(4) =   1
     Q(r) pseudized with 0 coefficients 


     PseudoPot. # 3 for Nb read from file:
     ./REDACTED_PATH
     MD5 check sum: 411d72ad547312f8017e2943ceca08cc
     Pseudo is Projector augmented-wave + core cor, Zval = 13.0
     Generated using "atomic" code by A. Dal Corso  v.5.0.99 svn rev. 10869
     Shape of augmentation charge: PSQ
     Using radial grid of 1227 points,  6 beta functions with: 
                l(1) =   0
                l(2) =   0
                l(3) =   1
                l(4) =   1
                l(5) =   2
                l(6) =   2
     Q(r) pseudized with 0 coefficients 


     PseudoPot. # 4 for Se read from file:
     ./REDACTED_PATH
     MD5 check sum: 1b3568f3a8ae88f9a2a0ad0698632c85
     Pseudo is Ultrasoft + core correction, Zval =  6.0
     Generated by new atomic code, or converted to UPF format
     Using radial grid of  877 points,  6 beta functions with: 
                l(1) =   0
                l(2) =   0
                l(3) =   1
                l(4) =   1
                l(5) =   2
                l(6) =   2
     Q(r) pseudized with  8 coefficients,  rinner =    1.300   1.300   1.300
                                                       1.300   1.300

     PseudoPot. # 5 for B  read from file:
     ./REDACTED_PATH
     MD5 check sum: 8c825a5969375aca5c2c6ad5945b3059
     Pseudo is Projector augmented-wave + core cor, Zval =  3.0
     Generated using &quot;atomic&quot; code by A. Dal Corso  v.6.3
     Shape of augmentation charge: PSQ
     Using radial grid of 1059 points,  4 beta functions with: 
                l(1) =   0
                l(2) =   0
                l(3) =   1
                l(4) =   1
     Q(r) pseudized with 0 coefficients 


     PseudoPot. # 6 for N  read from file:
     ./REDACTED_PATH
     MD5 check sum: 14c48229446f9f2d411169a3abcbc3fa
     Pseudo is Projector augmented-wave + core cor, Zval =  5.0
     Generated using &quot;atomic&quot; code by A. Dal Corso  v.6.3
     Shape of augmentation charge: PSQ
     Using radial grid of 1085 points,  4 beta functions with: 
                l(1) =   0
                l(2) =   0
                l(3) =   1
                l(4) =   1
     Q(r) pseudized with 0 coefficients 


     atomic species   valence    mass     pseudopotential
     Al                3.00    26.98154     Al( 1.00)
     O                 6.00    15.99900     O ( 1.00)
     Nb               13.00    92.90637     Nb( 1.00)
     Se                6.00    78.97100     Se( 1.00)
     B                 3.00    10.81100     B ( 1.00)
     N                 5.00    14.00700     N ( 1.00)

     Starting magnetic structure 
     atomic species   magnetization
     Al              0.000
     O               0.000
     Nb              0.020
     Se              0.000
     B               0.000
     N               0.000

     No symmetry found


                                    s                        frac. trans.

      isym =  1     identity                                     

 cryst.   s( 1) = (     1          0          0      )
                  (     0          1          0      )
                  (     0          0          1      )

 cart.    s( 1) = (  1.0000000  0.0000000  0.0000000 )
                  (  0.0000000  1.0000000  0.0000000 )
                  (  0.0000000  0.0000000  1.0000000 )


   Cartesian axes

     site n.     atom                  positions (alat units)
         1        Al     tau(   1) = (   0.1666667   0.0962250   0.8513798  )
         2        Al     tau(   2) = (   0.0000000   0.1924501   0.9841938  )
         3        Al     tau(   3) = (   0.0000000   0.0000000   0.8177469  )
         4        Al     tau(   4) = (   0.0000000   0.0000000   1.0026577  )
         5        Al     tau(   5) = (   0.1666667   0.0962250   1.0737814  )
         6        Al     tau(   6) = (   0.0000000   0.1924501   0.7004272  )
         7        O      tau(   7) = (   0.2687667   0.0962250   0.7590871  )
         8        O      tau(   8) = (   0.1156167   0.1846462   0.7590871  )
         9        O      tau(   9) = (   0.1156167   0.0078039   0.7590871  )
        10        O      tau(  10) = (   0.1047547   0.1975389   1.0655402  )
        11        O      tau(  11) = (  -0.0567844   0.2806259   1.0655402  )
        12        O      tau(  12) = (  -0.0479703   0.0991855   1.0655402  )
        13        O      tau(  13) = (   0.2293632   0.0007279   0.9135286  )
        14        O      tau(  14) = (   0.8846880   0.1982704   0.9135286  )
        15        O      tau(  15) = (   0.0526155   0.0896768   0.9135286  )
        16        Al     tau(  16) = (  -0.0000000   0.3849000   0.8513798  )
        17        Al     tau(  17) = (  -0.1666667   0.4811251   0.9841938  )
        18        Al     tau(  18) = (  -0.1666667   0.2886750   0.8177469  )
        19        Al     tau(  19) = (  -0.1666667   0.2886750   1.0026577  )
        20        Al     tau(  20) = (  -0.0000000   0.3849000   1.0737814  )
        21        Al     tau(  21) = (  -0.1666667   0.4811251   0.7004272  )
        22        O      tau(  22) = (   0.1021000   0.3849000   0.7590871  )
        23        O      tau(  23) = (  -0.0510500   0.4733212   0.7590871  )
        24        O      tau(  24) = (  -0.0510500   0.2964789   0.7590871  )
        25        O      tau(  25) = (  -0.0619120   0.4862139   1.0655402  )
        26        O      tau(  26) = (  -0.2234510   0.5693009   1.0655402  )
        27        O      tau(  27) = (  -0.2146370   0.3878605   1.0655402  )
        28        O      tau(  28) = (   0.0626965   0.2894029   0.9135286  )
        29        O      tau(  29) = (   0.7180214   0.4869454   0.9135286  )
        30        O      tau(  30) = (  -0.1140512   0.3783518   0.9135286  )
        31        Al     tau(  31) = (  -0.1666667   0.6735750   0.8513798  )
        32        Al     tau(  32) = (  -0.3333333   0.7698001   0.9841938  )
        33        Al     tau(  33) = (  -0.3333333   0.5773500   0.8177469  )
        34        Al     tau(  34) = (  -0.3333333   0.5773500   1.0026577  )
        35        Al     tau(  35) = (  -0.1666667   0.6735750   1.0737814  )
        36        Al     tau(  36) = (  -0.3333333   0.7698001   0.7004272  )
        37        O      tau(  37) = (  -0.0645667   0.6735750   0.7590871  )
        38        O      tau(  38) = (  -0.2177167   0.7619962   0.7590871  )
        39        O      tau(  39) = (  -0.2177167   0.5851539   0.7590871  )
        40        O      tau(  40) = (  -0.2285787   0.7748889   1.0655402  )
        41        O      tau(  41) = (  -0.3901177   0.8579759   1.0655402  )
        42        O      tau(  42) = (  -0.3813037   0.6765355   1.0655402  )
        43        O      tau(  43) = (  -0.1039702   0.5780779   0.9135286  )
        44        O      tau(  44) = (   0.5513547   0.7756204   0.9135286  )
        45        O      tau(  45) = (  -0.2807179   0.6670268   0.9135286  )
        46        Al     tau(  46) = (   0.5000000   0.0962250   0.8513798  )
        47        Al     tau(  47) = (   0.3333333   0.1924501   0.9841938  )
        48        Al     tau(  48) = (   0.3333333   0.0000000   0.8177469  )
        49        Al     tau(  49) = (   0.3333333   0.0000000   1.0026577  )
        50        Al     tau(  50) = (   0.5000000   0.0962250   1.0737814  )
        51        Al     tau(  51) = (   0.3333333   0.1924501   0.7004272  )
        52        O      tau(  52) = (   0.6021000   0.0962250   0.7590871  )
        53        O      tau(  53) = (   0.4489500   0.1846462   0.7590871  )
        54        O      tau(  54) = (   0.4489500   0.0078039   0.7590871  )
        55        O      tau(  55) = (   0.4380880   0.1975389   1.0655402  )
        56        O      tau(  56) = (   0.2765490   0.2806259   1.0655402  )
        57        O      tau(  57) = (   0.2853630   0.0991855   1.0655402  )
        58        O      tau(  58) = (   0.5626965   0.0007279   0.9135286  )
        59        O      tau(  59) = (   0.2180214   0.1982704   0.9135286  )
        60        O      tau(  60) = (   0.3859488   0.0896768   0.9135286  )
        61        Al     tau(  61) = (   0.3333333   0.3849000   0.8513798  )
        62        Al     tau(  62) = (   0.1666667   0.4811251   0.9841938  )
        63        Al     tau(  63) = (   0.1666667   0.2886750   0.8177469  )
        64        Al     tau(  64) = (   0.1666667   0.2886750   1.0026577  )
        65        Al     tau(  65) = (   0.3333333   0.3849000   1.0737814  )
        66        Al     tau(  66) = (   0.1666667   0.4811251   0.7004272  )
        67        O      tau(  67) = (   0.4354333   0.3849000   0.7590871  )
        68        O      tau(  68) = (   0.2822833   0.4733212   0.7590871  )
        69        O      tau(  69) = (   0.2822833   0.2964789   0.7590871  )
        70        O      tau(  70) = (   0.2714213   0.4862139   1.0655402  )
        71        O      tau(  71) = (   0.1098823   0.5693009   1.0655402  )
        72        O      tau(  72) = (   0.1186963   0.3878605   1.0655402  )
        73        O      tau(  73) = (   0.3960298   0.2894029   0.9135286  )
        74        O      tau(  74) = (   0.0513547   0.4869454   0.9135286  )
        75        O      tau(  75) = (   0.2192821   0.3783518   0.9135286  )
        76        Al     tau(  76) = (   0.1666667   0.6735750   0.8513798  )
        77        Al     tau(  77) = (   0.0000000   0.7698001   0.9841938  )
        78        Al     tau(  78) = (   0.0000000   0.5773500   0.8177469  )
        79        Al     tau(  79) = (   0.0000000   0.5773500   1.0026577  )
        80        Al     tau(  80) = (   0.1666667   0.6735750   1.0737814  )
        81        Al     tau(  81) = (   0.0000000   0.7698001   0.7004272  )
        82        O      tau(  82) = (   0.2687667   0.6735750   0.7590871  )
        83        O      tau(  83) = (   0.1156167   0.7619962   0.7590871  )
        84        O      tau(  84) = (   0.1156167   0.5851539   0.7590871  )
        85        O      tau(  85) = (   0.1047547   0.7748889   1.0655402  )
        86        O      tau(  86) = (  -0.0567844   0.8579759   1.0655402  )
        87        O      tau(  87) = (  -0.0479703   0.6765355   1.0655402  )
        88        O      tau(  88) = (   0.2293632   0.5780779   0.9135286  )
        89        O      tau(  89) = (  -0.1153120   0.7756204   0.9135286  )
        90        O      tau(  90) = (   0.0526155   0.6670268   0.9135286  )
        91        Al     tau(  91) = (   0.8333333   0.0962250   0.8513798  )
        92        Al     tau(  92) = (   0.6666667   0.1924501   0.9841938  )
        93        Al     tau(  93) = (   0.6666667   0.0000000   0.8177469  )
        94        Al     tau(  94) = (   0.6666667   0.0000000   1.0026577  )
        95        Al     tau(  95) = (   0.8333333   0.0962250   1.0737814  )
        96        Al     tau(  96) = (   0.6666667   0.1924501   0.7004272  )
        97        O      tau(  97) = (   0.9354333   0.0962250   0.7590871  )
        98        O      tau(  98) = (   0.7822833   0.1846462   0.7590871  )
        99        O      tau(  99) = (   0.7822833   0.0078039   0.7590871  )
       100        O      tau( 100) = (   0.7714213   0.1975389   1.0655402  )
       101        O      tau( 101) = (   0.6098823   0.2806259   1.0655402  )
       102        O      tau( 102) = (   0.6186963   0.0991855   1.0655402  )
       103        O      tau( 103) = (   0.8960298   0.0007279   0.9135286  )
       104        O      tau( 104) = (   0.5513547   0.1982704   0.9135286  )
       105        O      tau( 105) = (   0.7192821   0.0896768   0.9135286  )
       106        Al     tau( 106) = (   0.6666667   0.3849000   0.8513798  )
       107        Al     tau( 107) = (   0.5000000   0.4811251   0.9841938  )
       108        Al     tau( 108) = (   0.5000000   0.2886750   0.8177469  )
       109        Al     tau( 109) = (   0.5000000   0.2886750   1.0026577  )
       110        Al     tau( 110) = (   0.6666667   0.3849000   1.0737814  )
       111        Al     tau( 111) = (   0.5000000   0.4811251   0.7004272  )
       112        O      tau( 112) = (   0.7687667   0.3849000   0.7590871  )
       113        O      tau( 113) = (   0.6156167   0.4733212   0.7590871  )
       114        O      tau( 114) = (   0.6156167   0.2964789   0.7590871  )
       115        O      tau( 115) = (   0.6047547   0.4862139   1.0655402  )
       116        O      tau( 116) = (   0.4432156   0.5693009   1.0655402  )
       117        O      tau( 117) = (   0.4520297   0.3878605   1.0655402  )
       118        O      tau( 118) = (   0.7293632   0.2894029   0.9135286  )
       119        O      tau( 119) = (   0.3846880   0.4869454   0.9135286  )
       120        O      tau( 120) = (   0.5526155   0.3783518   0.9135286  )
       121        Al     tau( 121) = (   0.5000000   0.6735750   0.8513798  )
       122        Al     tau( 122) = (   0.3333333   0.7698001   0.9841938  )
       123        Al     tau( 123) = (   0.3333333   0.5773500   0.8177469  )
       124        Al     tau( 124) = (   0.3333333   0.5773500   1.0026577  )
       125        Al     tau( 125) = (   0.5000000   0.6735750   1.0737814  )
       126        Al     tau( 126) = (   0.3333333   0.7698001   0.7004272  )
       127        O      tau( 127) = (   0.6021000   0.6735750   0.7590871  )
       128        O      tau( 128) = (   0.4489500   0.7619962   0.7590871  )
       129        O      tau( 129) = (   0.4489500   0.5851539   0.7590871  )
       130        O      tau( 130) = (   0.4380880   0.7748889   1.0655402  )
       131        O      tau( 131) = (   0.2765490   0.8579759   1.0655402  )
       132        O      tau( 132) = (   0.2853630   0.6765355   1.0655402  )
       133        O      tau( 133) = (   0.5626965   0.5780779   0.9135286  )
       134        O      tau( 134) = (   0.2180214   0.7756204   0.9135286  )
       135        O      tau( 135) = (   0.3859488   0.6670268   0.9135286  )
       136        Nb     tau( 136) = (   0.1666818   0.0962262   1.3928999  )
       137        Se     tau( 137) = (   0.1662111   0.2403240   1.5087056  )
       138        Se     tau( 138) = (   0.1671340   0.2401086   1.2774889  )
       139        Nb     tau( 139) = (   0.0416277   0.3114126   1.3914489  )
       140        Se     tau( 140) = (   0.0426891   0.4578421   1.5039540  )
       141        Se     tau( 141) = (   0.0399368   0.4545423   1.2740581  )
       142        Nb     tau( 142) = (  -0.0843591   0.5286109   1.3896145  )
       143        Se     tau( 143) = (  -0.0820192   0.6735507   1.5050556  )
       144        Se     tau( 144) = (  -0.0874972   0.6732950   1.2754832  )
       145        Nb     tau( 145) = (  -0.2095591   0.7463934   1.3930791  )
       146        Se     tau( 146) = (   0.2917356   0.0244224   1.5087437  )
       147        Se     tau( 147) = (   0.2909976   0.0238684   1.2775805  )
       148        Nb     tau( 148) = (   0.4155057   0.0969538   1.3915391  )
       149        Se     tau( 149) = (   0.4170579   0.2403859   1.5084472  )
       150        Se     tau( 150) = (   0.4163197   0.2413736   1.2774329  )
       151        Nb     tau( 151) = (   0.2916293   0.3113065   1.3930209  )
       152        Se     tau( 152) = (   0.2909552   0.4581913   1.5049851  )
       153        Se     tau( 153) = (   0.2940047   0.4535881   1.2754146  )
       154        Nb     tau( 154) = (   0.1668601   0.5274992   1.3865517  )
       155        Se     tau( 155) = (   0.1666528   0.6734722   1.4998410  )
       156        Se     tau( 156) = (   0.1666658   0.6735591   1.2724212  )
       157        Nb     tau( 157) = (   0.0400960   0.7463830   1.3866370  )
       158        Se     tau( 158) = (   0.5418688   0.0227255   1.5040237  )
       159        Se     tau( 159) = (   0.5403026   0.0269424   1.2742264  )
       160        Nb     tau( 160) = (   0.6666629   0.0974475   1.3897105  )
       161        Se     tau( 161) = (   0.6670268   0.2400398   1.5070972  )
       162        Se     tau( 162) = (   0.6672509   0.2415882   1.2761461  )
       163        Nb     tau( 163) = (   0.5416855   0.3125482   1.3914170  )
       164        Se     tau( 164) = (   0.5409572   0.4570002   1.5071103  )
       165        Se     tau( 165) = (   0.5422099   0.4561638   1.2760927  )
       166        Nb     tau( 166) = (   0.4176810   0.5286071   1.3896009  )
       167        Se     tau( 167) = (   0.4154589   0.6739054   1.5040380  )
       168        Se     tau( 168) = (   0.4197599   0.6733256   1.2741688  )
       169        Nb     tau( 169) = (   0.2930404   0.7467380   1.3866413  )
       170        Se     tau( 170) = (   0.7910517   0.0228267   1.5050716  )
       171        Se     tau( 171) = (   0.7934915   0.0279674   1.2755456  )
       172        Nb     tau( 172) = (   0.9179239   0.0969241   1.3930981  )
       173        Se     tau( 173) = (  -0.0834085   0.2409880   1.5084365  )
       174        Se     tau( 174) = (  -0.0838095   0.2398993   1.2774511  )
       175        Nb     tau( 175) = (   0.7918596   0.3129202   1.3914154  )
       176        Se     tau( 176) = (  -0.2080058   0.4575643   1.5071335  )
       177        Se     tau( 177) = (  -0.2094467   0.4571253   1.2760845  )
       178        Nb     tau( 178) = (   0.6664680   0.5292888   1.3914751  )
       179        Se     tau( 179) = (  -0.3336377   0.6732043   1.5085083  )
       180        Se     tau( 180) = (  -0.3325301   0.6735377   1.2774706  )
       181        Nb     tau( 181) = (   0.5428415   0.7463150   1.3915527  )
       182        Se     tau( 182) = (   0.0420279   0.0236896   1.5087409  )
       183        Se     tau( 183) = (   0.0418836   0.0247684   1.2775798  )
       184        B      tau( 184) = (  -0.0268333   0.1707980   1.7436202  )
       185        B      tau( 185) = (   0.9086503   0.0030854   1.7434470  )
       186        B      tau( 186) = (   0.3441541   0.7015000   1.7438299  )
       187        B      tau( 187) = (   0.2795859   0.5338965   1.7429295  )
       188        B      tau( 188) = (   0.2150211   0.3663068   1.7434337  )
       189        B      tau( 189) = (   0.1505585   0.1987310   1.7434598  )
       190        B      tau( 190) = (   0.0860048   0.0310464   1.7434679  )
       191        B      tau( 191) = (   0.5215116   0.7294580   1.7453052  )
       192        B      tau( 192) = (   0.4570305   0.5618708   1.7444304  )
       193        B      tau( 193) = (   0.3924841   0.3942214   1.7427876  )
       194        B      tau( 194) = (   0.3280060   0.2265767   1.7436256  )
       195        B      tau( 195) = (   0.2635005   0.0589841   1.7434671  )
       196        B      tau( 196) = (  -0.3011088   0.7574126   1.7436283  )
       197        B      tau( 197) = (   0.6343932   0.5898573   1.7443394  )
       198        B      tau( 198) = (   0.5698894   0.4222060   1.7432285  )
       199        B      tau( 199) = (   0.5053612   0.2544969   1.7443393  )
       200        B      tau( 200) = (   0.4409051   0.0869390   1.7452985  )
       201        B      tau( 201) = (  -0.1236066   0.7853965   1.7434411  )
       202        B      tau( 202) = (  -0.1881630   0.6177501   1.7427938  )
       203        B      tau( 203) = (  -0.2526299   0.4501188   1.7432337  )
       204        B      tau( 204) = (   0.6828031   0.2824602   1.7432265  )
       205        B      tau( 205) = (   0.6182806   0.1148904   1.7444281  )
       206        B      tau( 206) = (   0.0537972   0.8133474   1.7438206  )
       207        B      tau( 207) = (  -0.0107520   0.6456871   1.7429353  )
       208        B      tau( 208) = (  -0.0752475   0.4780269   1.7444310  )
       209        B      tau( 209) = (  -0.1396911   0.3104319   1.7443364  )
       210        B      tau( 210) = (   0.7957429   0.1428157   1.7427880  )
       211        B      tau( 211) = (   0.2312312   0.8412312   1.7429345  )
       212        B      tau( 212) = (   0.1666885   0.6736052   1.7425708  )
       213        B      tau( 213) = (   0.1021137   0.5059678   1.7438177  )
       214        B      tau( 214) = (   0.0376471   0.3383910   1.7452861  )
       215        N      tau( 215) = (   0.2634930   0.6363286   1.7430011  )
       216        N      tau( 216) = (   0.1988763   0.4687584   1.7434609  )
       217        N      tau( 217) = (   0.1343883   0.3012139   1.7447005  )
       218        N      tau( 218) = (   0.0699110   0.1335405   1.7434252  )
       219        N      tau( 219) = (   0.5053379   0.8318266   1.7447203  )
       220        N      tau( 220) = (   0.4409078   0.6642542   1.7454723  )
       221        N      tau( 221) = (   0.3764091   0.4966922   1.7432347  )
       222        N      tau( 222) = (   0.3118241   0.3290462   1.7427340  )
       223        N      tau( 223) = (   0.2473676   0.1614223   1.7434288  )
       224        N      tau( 224) = (  -0.3172148   0.8598241   1.7434328  )
       225        N      tau( 225) = (  -0.3817738   0.6922618   1.7453860  )
       226        N      tau( 226) = (   0.5537963   0.5246884   1.7446419  )
       227        N      tau( 227) = (   0.4892515   0.3569593   1.7432835  )
       228        N      tau( 228) = (   0.4247602   0.1892941   1.7453846  )
       229        N      tau( 229) = (   0.3603378   0.0217471   1.7447142  )
       230        N      tau( 230) = (  -0.2042769   0.7201914   1.7427367  )
       231        N      tau( 231) = (  -0.2688166   0.5525777   1.7432859  )
       232        N      tau( 232) = (   0.6666877   0.3849292   1.7429547  )
       233        N      tau( 233) = (   0.6020983   0.2172829   1.7446425  )
       234        N      tau( 234) = (   0.5376754   0.0497357   1.7454629  )
       235        N      tau( 235) = (  -0.0268086   0.7481517   1.7434669  )
       236        N      tau( 236) = (  -0.0913833   0.5804364   1.7432458  )
       237        N      tau( 237) = (  -0.1558307   0.4128165   1.7446501  )
       238        N      tau( 238) = (   0.7796289   0.2452505   1.7432789  )
       239        N      tau( 239) = (   0.7150382   0.0776594   1.7432393  )
       240        N      tau( 240) = (   0.1505678   0.7760778   1.7429979  )
       241        N      tau( 241) = (   0.0860037   0.6084073   1.7430006  )
       242        N      tau( 242) = (   0.0214812   0.4407987   1.7454527  )
       243        N      tau( 243) = (  -0.0429225   0.2732320   1.7453746  )
       244        N      tau( 244) = (   0.8925166   0.1055500   1.7427360  )
       245        N      tau( 245) = (   0.3279967   0.8039032   1.7434758  )

     --------------------------------------------
     DFT-D3 Dispersion Correction (3-body terms):
     --------------------------------------------
       Reference C6 values for interpolation: 

         atom   Coordination number   C6
         B          0.000           214.36
         B          0.971           150.74
         B          1.944           106.23
         B          2.913            62.89
         B          4.586            56.06
         N          0.000            50.54
         N          0.994            44.25
         N          2.014            39.35
         N          2.990            31.16
         O          0.000            31.01
         O          0.993            25.63
         O          1.989            20.74
         Al         0.000          1081.08
         Al         0.965           875.51
         Al         1.931           513.50
         Al         2.915           307.19
         Se         0.000           427.35
         Se         0.990           427.57
         Se         1.981           421.05
         Nb         0.000          2950.50
         Nb         1.954          1161.16
         Nb         2.922           857.79

       Values used:

         atom   Coordination number  R0_AB[au]  C6      C8
         Al         9.715            3.789    307.19  29441.29
         Al        10.550            3.789    307.19  29441.29
         Al        10.102            3.789    307.19  29441.29
         Al        11.462            3.789    307.19  29441.29
         Al         7.122            3.789    307.19  29441.29
         Al         4.169            3.789    307.19  29441.31
         O          2.996            2.345     20.74    418.58
         O          2.996            2.345     20.74    418.58
         O          2.996            2.345     20.74    418.58
         O          3.060            2.345     20.74    418.58
         O          3.064            2.345     20.74    418.58
         O          3.056            2.345     20.74    418.58
         O          3.992            2.345     20.74    418.58
         O          3.992            2.345     20.74    418.58
         O          3.992            2.345     20.74    418.58
         Al         9.715            3.789    307.19  29441.29
         Al        10.552            3.789    307.19  29441.29
         Al        10.102            3.789    307.19  29441.29
         Al        11.458            3.789    307.19  29441.29
         Al         7.332            3.789    307.19  29441.29
         Al         4.169            3.789    307.19  29441.31
         O          2.996            2.345     20.74    418.58
         O          2.996            2.345     20.74    418.58
         O          2.996            2.345     20.74    418.58
         O          3.057            2.345     20.74    418.58
         O          3.056            2.345     20.74    418.58
         O          3.062            2.345     20.74    418.58
         O          3.992            2.345     20.74    418.58
         O          3.992            2.345     20.74    418.58
         O          3.992            2.345     20.74    418.58
         Al         9.715            3.789    307.19  29441.29
         Al        10.550            3.789    307.19  29441.29
         Al        10.102            3.789    307.19  29441.29
         Al        11.458            3.789    307.19  29441.29
         Al         7.319            3.789    307.19  29441.29
         Al         4.169            3.789    307.19  29441.31
         O          2.996            2.345     20.74    418.58
         O          2.996            2.345     20.74    418.58
         O          2.996            2.345     20.74    418.58
         O          3.056            2.345     20.74    418.58
         O          3.060            2.345     20.74    418.58
         O          3.064            2.345     20.74    418.58
         O          3.992            2.345     20.74    418.58
         O          3.992            2.345     20.74    418.58
         O          3.992            2.345     20.74    418.58
         Al         9.715            3.789    307.19  29441.29
         Al        10.550            3.789    307.19  29441.29
         Al        10.102            3.789    307.19  29441.29
         Al        11.462            3.789    307.19  29441.29
         Al         7.330            3.789    307.19  29441.29
         Al         4.169            3.789    307.19  29441.31
         O          2.996            2.345     20.74    418.58
         O          2.996            2.345     20.74    418.58
         O          2.996            2.345     20.74    418.58
         O          3.064            2.345     20.74    418.58
         O          3.056            2.345     20.74    418.58
         O          3.060            2.345     20.74    418.58
         O          3.992            2.345     20.74    418.58
         O          3.992            2.345     20.74    418.58
         O          3.992            2.345     20.74    418.58
         Al         9.715            3.789    307.19  29441.29
         Al        10.550            3.789    307.19  29441.29
         Al        10.102            3.789    307.19  29441.29
         Al        11.462            3.789    307.19  29441.29
         Al         7.320            3.789    307.19  29441.29
         Al         4.169            3.789    307.19  29441.31
         O          2.996            2.345     20.74    418.58
         O          2.996            2.345     20.74    418.58
         O          2.996            2.345     20.74    418.58
         O          3.068            2.345     20.74    418.58
         O          3.057            2.345     20.74    418.58
         O          3.057            2.345     20.74    418.58
         O          3.992            2.345     20.74    418.58
         O          3.992            2.345     20.74    418.58
         O          3.992            2.345     20.74    418.58
         Al         9.715            3.789    307.19  29441.29
         Al        10.550            3.789    307.19  29441.29
         Al        10.102            3.789    307.19  29441.29
         Al        11.458            3.789    307.19  29441.29
         Al         7.621            3.789    307.19  29441.29
         Al         4.169            3.789    307.19  29441.31
         O          2.996            2.345     20.74    418.58
         O          2.996            2.345     20.74    418.58
         O          2.996            2.345     20.74    418.58
         O          3.057            2.345     20.74    418.58
         O          3.057            2.345     20.74    418.58
         O          3.068            2.345     20.74    418.58
         O          3.992            2.345     20.74    418.58
         O          3.992            2.345     20.74    418.58
         O          3.992            2.345     20.74    418.58
         Al         9.715            3.789    307.19  29441.29
         Al        10.552            3.789    307.19  29441.29
         Al        10.102            3.789    307.19  29441.29
         Al        11.458            3.789    307.19  29441.29
         Al         7.319            3.789    307.19  29441.29
         Al         4.169            3.789    307.19  29441.31
         O          2.996            2.345     20.74    418.58
         O          2.996            2.345     20.74    418.58
         O          2.996            2.345     20.74    418.58
         O          3.056            2.345     20.74    418.58
         O          3.062            2.345     20.74    418.58
         O          3.057            2.345     20.74    418.58
         O          3.992            2.345     20.74    418.58
         O          3.992            2.345     20.74    418.58
         O          3.992            2.345     20.74    418.58
         Al         9.715            3.789    307.19  29441.29
         Al        10.552            3.789    307.19  29441.29
         Al        10.102            3.789    307.19  29441.29
         Al        11.458            3.789    307.19  29441.29
         Al         7.135            3.789    307.19  29441.29
         Al         4.169            3.789    307.19  29441.31
         O          2.996            2.345     20.74    418.58
         O          2.996            2.345     20.74    418.58
         O          2.996            2.345     20.74    418.58
         O          3.062            2.345     20.74    418.58
         O          3.057            2.345     20.74    418.58
         O          3.056            2.345     20.74    418.58
         O          3.992            2.345     20.74    418.58
         O          3.992            2.345     20.74    418.58
         O          3.992            2.345     20.74    418.58
         Al         9.715            3.789    307.19  29441.29
         Al        10.550            3.789    307.19  29441.29
         Al        10.102            3.789    307.19  29441.29
         Al        11.458            3.789    307.19  29441.29
         Al         7.331            3.789    307.19  29441.29
         Al         4.169            3.789    307.19  29441.31
         O          2.996            2.345     20.74    418.58
         O          2.996            2.345     20.74    418.58
         O          2.996            2.345     20.74    418.58
         O          3.057            2.345     20.74    418.58
         O          3.068            2.345     20.74    418.58
         O          3.057            2.345     20.74    418.58
         O          3.992            2.345     20.74    418.58
         O          3.992            2.345     20.74    418.58
         O          3.992            2.345     20.74    418.58
         Nb         8.747            3.647    857.79 111659.18
         Se         3.489            3.332    421.05  29958.36
         Se         3.601            3.332    421.05  29958.36
         Nb         8.679            3.647    857.79 111659.18
         Se         3.504            3.332    421.05  29958.36
         Se         3.855            3.332    421.05  29958.36
         Nb         8.598            3.647    857.79 111659.18
         Se         3.502            3.332    421.05  29958.36
         Se         3.866            3.332    421.05  29958.36
         Nb         8.678            3.647    857.79 111659.18
         Se         3.490            3.332    421.05  29958.36
         Se         3.601            3.332    421.05  29958.36
         Nb         8.675            3.647    857.79 111659.18
         Se         3.483            3.332    421.05  29958.36
         Se         3.604            3.332    421.05  29958.36
         Nb         8.681            3.647    857.79 111659.18
         Se         3.502            3.332    421.05  29958.36
         Se         3.868            3.332    421.05  29958.36
         Nb         8.515            3.647    857.79 111659.18
         Se         3.539            3.332    421.05  29958.36
         Se         4.147            3.332    421.05  29958.36
         Nb         8.512            3.647    857.79 111659.18
         Se         3.504            3.332    421.05  29958.36
         Se         3.854            3.332    421.05  29958.36
         Nb         8.593            3.647    857.79 111659.18
         Se         3.485            3.332    421.05  29958.36
         Se         3.608            3.332    421.05  29958.36
         Nb         8.664            3.647    857.79 111659.18
         Se         3.485            3.332    421.05  29958.36
         Se         3.608            3.332    421.05  29958.36
         Nb         8.597            3.647    857.79 111659.18
         Se         3.504            3.332    421.05  29958.36
         Se         3.854            3.332    421.05  29958.36
         Nb         8.512            3.647    857.79 111659.18
         Se         3.501            3.332    421.05  29958.36
         Se         3.866            3.332    421.05  29958.36
         Nb         8.677            3.647    857.79 111659.18
         Se         3.483            3.332    421.05  29958.36
         Se         3.604            3.332    421.05  29958.36
         Nb         8.664            3.647    857.79 111659.18
         Se         3.485            3.332    421.05  29958.36
         Se         3.607            3.332    421.05  29958.36
         Nb         8.665            3.647    857.79 111659.18
         Se         3.483            3.332    421.05  29958.36
         Se         3.604            3.332    421.05  29958.36
         Nb         8.676            3.647    857.79 111659.18
         Se         3.490            3.332    421.05  29958.36
         Se         3.601            3.332    421.05  29958.36
         B          3.258            3.039     62.94   2507.78
         B          3.256            3.039     62.94   2507.82
         B          3.257            3.039     62.94   2507.79
         B          3.257            3.039     62.94   2507.79
         B          3.256            3.039     62.94   2507.82
         B          3.262            3.039     62.93   2507.67
         B          3.262            3.039     62.93   2507.67
         B          3.256            3.039     62.94   2507.82
         B          3.255            3.039     62.94   2507.83
         B          3.255            3.039     62.94   2507.83
         B          3.258            3.039     62.94   2507.78
         B          3.262            3.039     62.93   2507.67
         B          3.258            3.039     62.94   2507.78
         B          3.257            3.039     62.94   2507.78
         B          3.261            3.039     62.93   2507.70
         B          3.257            3.039     62.94   2507.78
         B          3.256            3.039     62.94   2507.82
         B          3.256            3.039     62.94   2507.82
         B          3.255            3.039     62.94   2507.83
         B          3.261            3.039     62.93   2507.70
         B          3.261            3.039     62.93   2507.70
         B          3.255            3.039     62.94   2507.83
         B          3.257            3.039     62.94   2507.79
         B          3.257            3.039     62.94   2507.79
         B          3.255            3.039     62.94   2507.83
         B          3.257            3.039     62.94   2507.78
         B          3.255            3.039     62.94   2507.83
         B          3.257            3.039     62.94   2507.79
         B          3.259            3.039     62.94   2507.74
         B          3.257            3.039     62.94   2507.79
         B          3.256            3.039     62.94   2507.82
         N          3.103            2.478     31.23    689.02
         N          3.104            2.478     31.23    689.01
         N          3.106            2.478     31.23    688.99
         N          3.104            2.478     31.23    689.01
         N          3.106            2.478     31.23    688.99
         N          3.107            2.478     31.23    688.98
         N          3.104            2.478     31.23    689.01
         N          3.104            2.478     31.23    689.02
         N          3.104            2.478     31.23    689.01
         N          3.104            2.478     31.23    689.01
         N          3.107            2.478     31.23    688.98
         N          3.106            2.478     31.23    688.99
         N          3.104            2.478     31.23    689.01
         N          3.107            2.478     31.23    688.98
         N          3.106            2.478     31.23    688.99
         N          3.104            2.478     31.23    689.02
         N          3.104            2.478     31.23    689.01
         N          3.103            2.478     31.23    689.02
         N          3.106            2.478     31.23    688.99
         N          3.107            2.478     31.23    688.98
         N          3.104            2.478     31.23    689.01
         N          3.104            2.478     31.23    689.01
         N          3.106            2.478     31.23    688.99
         N          3.104            2.478     31.23    689.01
         N          3.104            2.478     31.23    689.01
         N          3.103            2.478     31.23    689.02
         N          3.103            2.478     31.23    689.02
         N          3.107            2.478     31.23    688.98
         N          3.107            2.478     31.23    688.98
         N          3.104            2.478     31.23    689.02
         N          3.104            2.478     31.23    689.01

         Molecular C6 ( Ry / a.u.^6 ) =   7965072.73


   Crystallographic axes

     site n.     atom                  positions (cryst. coord.)
         1        Al     tau(   1) = (  0.2222222  0.1111112  0.2701144  )
         2        Al     tau(   2) = (  0.1111112  0.2222223  0.3122519  )
         3        Al     tau(   3) = (  0.0000000  0.0000000  0.2594438  )
         4        Al     tau(   4) = (  0.0000000  0.0000000  0.3181099  )
         5        Al     tau(   5) = (  0.2222222  0.1111112  0.3406750  )
         6        Al     tau(   6) = (  0.1111112  0.2222223  0.2222222  )
         7        O      tau(   7) = (  0.3243222  0.1111112  0.2408330  )
         8        O      tau(   8) = (  0.2222223  0.2132112  0.2408330  )
         9        O      tau(   9) = (  0.1201222  0.0090111  0.2408330  )
        10        O      tau(  10) = (  0.2188039  0.2280983  0.3380604  )
        11        O      tau(  11) = (  0.1052352  0.3240390  0.3380604  )
        12        O      tau(  12) = (  0.0092945  0.1145296  0.3380604  )
        13        O      tau(  13) = (  0.2297834  0.0008405  0.2898322  )
        14        O      tau(  14) = (  0.9991595  0.2289430  0.2898322  )
        15        O      tau(  15) = (  0.1043904  0.1035500  0.2898322  )
        16        Al     tau(  16) = (  0.2222222  0.4444445  0.2701144  )
        17        Al     tau(  17) = (  0.1111112  0.5555557  0.3122519  )
        18        Al     tau(  18) = ( -0.0000000  0.3333333  0.2594438  )
        19        Al     tau(  19) = ( -0.0000000  0.3333333  0.3181099  )
        20        Al     tau(  20) = (  0.2222222  0.4444445  0.3406750  )
        21        Al     tau(  21) = (  0.1111112  0.5555557  0.2222222  )
        22        O      tau(  22) = (  0.3243222  0.4444445  0.2408330  )
        23        O      tau(  23) = (  0.2222223  0.5465445  0.2408330  )
        24        O      tau(  24) = (  0.1201222  0.3423444  0.2408330  )
        25        O      tau(  25) = (  0.2188039  0.5614317  0.3380604  )
        26        O      tau(  26) = (  0.1052352  0.6573724  0.3380604  )
        27        O      tau(  27) = (  0.0092945  0.4478629  0.3380604  )
        28        O      tau(  28) = (  0.2297834  0.3341738  0.2898322  )
        29        O      tau(  29) = (  0.9991595  0.5622763  0.2898322  )
        30        O      tau(  30) = (  0.1043904  0.4368833  0.2898322  )
        31        Al     tau(  31) = (  0.2222222  0.7777778  0.2701144  )
        32        Al     tau(  32) = (  0.1111112  0.8888890  0.3122519  )
        33        Al     tau(  33) = (  0.0000000  0.6666667  0.2594438  )
        34        Al     tau(  34) = (  0.0000000  0.6666667  0.3181099  )
        35        Al     tau(  35) = (  0.2222222  0.7777778  0.3406750  )
        36        Al     tau(  36) = (  0.1111112  0.8888890  0.2222222  )
        37        O      tau(  37) = (  0.3243222  0.7777778  0.2408330  )
        38        O      tau(  38) = (  0.2222223  0.8798779  0.2408330  )
        39        O      tau(  39) = (  0.1201222  0.6756778  0.2408330  )
        40        O      tau(  40) = (  0.2188039  0.8947650  0.3380604  )
        41        O      tau(  41) = (  0.1052352  0.9907057  0.3380604  )
        42        O      tau(  42) = (  0.0092945  0.7811962  0.3380604  )
        43        O      tau(  43) = (  0.2297834  0.6675072  0.2898322  )
        44        O      tau(  44) = (  0.9991595  0.8956097  0.2898322  )
        45        O      tau(  45) = (  0.1043904  0.7702166  0.2898322  )
        46        Al     tau(  46) = (  0.5555556  0.1111112  0.2701144  )
        47        Al     tau(  47) = (  0.4444445  0.2222223  0.3122519  )
        48        Al     tau(  48) = (  0.3333333  0.0000000  0.2594438  )
        49        Al     tau(  49) = (  0.3333333  0.0000000  0.3181099  )
        50        Al     tau(  50) = (  0.5555556  0.1111112  0.3406750  )
        51        Al     tau(  51) = (  0.4444445  0.2222223  0.2222222  )
        52        O      tau(  52) = (  0.6576556  0.1111112  0.2408330  )
        53        O      tau(  53) = (  0.5555556  0.2132112  0.2408330  )
        54        O      tau(  54) = (  0.4534556  0.0090111  0.2408330  )
        55        O      tau(  55) = (  0.5521372  0.2280983  0.3380604  )
        56        O      tau(  56) = (  0.4385685  0.3240390  0.3380604  )
        57        O      tau(  57) = (  0.3426278  0.1145296  0.3380604  )
        58        O      tau(  58) = (  0.5631167  0.0008405  0.2898322  )
        59        O      tau(  59) = (  0.3324929  0.2289430  0.2898322  )
        60        O      tau(  60) = (  0.4377238  0.1035500  0.2898322  )
        61        Al     tau(  61) = (  0.5555556  0.4444445  0.2701144  )
        62        Al     tau(  62) = (  0.4444445  0.5555557  0.3122519  )
        63        Al     tau(  63) = (  0.3333333  0.3333333  0.2594438  )
        64        Al     tau(  64) = (  0.3333333  0.3333333  0.3181099  )
        65        Al     tau(  65) = (  0.5555556  0.4444445  0.3406750  )
        66        Al     tau(  66) = (  0.4444445  0.5555557  0.2222222  )
        67        O      tau(  67) = (  0.6576556  0.4444445  0.2408330  )
        68        O      tau(  68) = (  0.5555556  0.5465445  0.2408330  )
        69        O      tau(  69) = (  0.4534556  0.3423444  0.2408330  )
        70        O      tau(  70) = (  0.5521372  0.5614317  0.3380604  )
        71        O      tau(  71) = (  0.4385685  0.6573724  0.3380604  )
        72        O      tau(  72) = (  0.3426278  0.4478629  0.3380604  )
        73        O      tau(  73) = (  0.5631167  0.3341738  0.2898322  )
        74        O      tau(  74) = (  0.3324929  0.5622763  0.2898322  )
        75        O      tau(  75) = (  0.4377238  0.4368833  0.2898322  )
        76        Al     tau(  76) = (  0.5555556  0.7777778  0.2701144  )
        77        Al     tau(  77) = (  0.4444445  0.8888890  0.3122519  )
        78        Al     tau(  78) = (  0.3333333  0.6666667  0.2594438  )
        79        Al     tau(  79) = (  0.3333333  0.6666667  0.3181099  )
        80        Al     tau(  80) = (  0.5555556  0.7777778  0.3406750  )
        81        Al     tau(  81) = (  0.4444445  0.8888890  0.2222222  )
        82        O      tau(  82) = (  0.6576556  0.7777778  0.2408330  )
        83        O      tau(  83) = (  0.5555556  0.8798779  0.2408330  )
        84        O      tau(  84) = (  0.4534556  0.6756778  0.2408330  )
        85        O      tau(  85) = (  0.5521372  0.8947650  0.3380604  )
        86        O      tau(  86) = (  0.4385685  0.9907057  0.3380604  )
        87        O      tau(  87) = (  0.3426278  0.7811962  0.3380604  )
        88        O      tau(  88) = (  0.5631167  0.6675072  0.2898322  )
        89        O      tau(  89) = (  0.3324929  0.8956097  0.2898322  )
        90        O      tau(  90) = (  0.4377238  0.7702166  0.2898322  )
        91        Al     tau(  91) = (  0.8888889  0.1111112  0.2701144  )
        92        Al     tau(  92) = (  0.7777778  0.2222223  0.3122519  )
        93        Al     tau(  93) = (  0.6666667  0.0000000  0.2594438  )
        94        Al     tau(  94) = (  0.6666667  0.0000000  0.3181099  )
        95        Al     tau(  95) = (  0.8888889  0.1111112  0.3406750  )
        96        Al     tau(  96) = (  0.7777778  0.2222223  0.2222222  )
        97        O      tau(  97) = (  0.9909889  0.1111112  0.2408330  )
        98        O      tau(  98) = (  0.8888889  0.2132112  0.2408330  )
        99        O      tau(  99) = (  0.7867889  0.0090111  0.2408330  )
       100        O      tau( 100) = (  0.8854705  0.2280983  0.3380604  )
       101        O      tau( 101) = (  0.7719018  0.3240390  0.3380604  )
       102        O      tau( 102) = (  0.6759611  0.1145296  0.3380604  )
       103        O      tau( 103) = (  0.8964501  0.0008405  0.2898322  )
       104        O      tau( 104) = (  0.6658262  0.2289430  0.2898322  )
       105        O      tau( 105) = (  0.7710571  0.1035500  0.2898322  )
       106        Al     tau( 106) = (  0.8888889  0.4444445  0.2701144  )
       107        Al     tau( 107) = (  0.7777778  0.5555557  0.3122519  )
       108        Al     tau( 108) = (  0.6666667  0.3333333  0.2594438  )
       109        Al     tau( 109) = (  0.6666667  0.3333333  0.3181099  )
       110        Al     tau( 110) = (  0.8888889  0.4444445  0.3406750  )
       111        Al     tau( 111) = (  0.7777778  0.5555557  0.2222222  )
       112        O      tau( 112) = (  0.9909889  0.4444445  0.2408330  )
       113        O      tau( 113) = (  0.8888889  0.5465445  0.2408330  )
       114        O      tau( 114) = (  0.7867889  0.3423444  0.2408330  )
       115        O      tau( 115) = (  0.8854705  0.5614317  0.3380604  )
       116        O      tau( 116) = (  0.7719018  0.6573724  0.3380604  )
       117        O      tau( 117) = (  0.6759611  0.4478629  0.3380604  )
       118        O      tau( 118) = (  0.8964501  0.3341738  0.2898322  )
       119        O      tau( 119) = (  0.6658262  0.5622763  0.2898322  )
       120        O      tau( 120) = (  0.7710571  0.4368833  0.2898322  )
       121        Al     tau( 121) = (  0.8888889  0.7777778  0.2701144  )
       122        Al     tau( 122) = (  0.7777778  0.8888890  0.3122519  )
       123        Al     tau( 123) = (  0.6666667  0.6666667  0.2594438  )
       124        Al     tau( 124) = (  0.6666667  0.6666667  0.3181099  )
       125        Al     tau( 125) = (  0.8888889  0.7777778  0.3406750  )
       126        Al     tau( 126) = (  0.7777778  0.8888890  0.2222222  )
       127        O      tau( 127) = (  0.9909889  0.7777778  0.2408330  )
       128        O      tau( 128) = (  0.8888889  0.8798779  0.2408330  )
       129        O      tau( 129) = (  0.7867889  0.6756778  0.2408330  )
       130        O      tau( 130) = (  0.8854705  0.8947650  0.3380604  )
       131        O      tau( 131) = (  0.7719018  0.9907057  0.3380604  )
       132        O      tau( 132) = (  0.6759611  0.7811962  0.3380604  )
       133        O      tau( 133) = (  0.8964501  0.6675072  0.2898322  )
       134        O      tau( 134) = (  0.6658262  0.8956097  0.2898322  )
       135        O      tau( 135) = (  0.7710571  0.7702166  0.2898322  )
       136        Nb     tau( 136) = (  0.2222381  0.1111125  0.4419207  )
       137        Se     tau( 137) = (  0.3049623  0.2775024  0.4786620  )
       138        Se     tau( 138) = (  0.3057608  0.2772536  0.4053047  )
       139        Nb     tau( 139) = (  0.2214219  0.3595884  0.4414604  )
       140        Se     tau( 140) = (  0.3070245  0.5286707  0.4771545  )
       141        Se     tau( 141) = (  0.3023670  0.5248605  0.4042162  )
       142        Nb     tau( 142) = (  0.2208346  0.6103876  0.4408784  )
       143        Se     tau( 143) = (  0.3068557  0.7777497  0.4775040  )
       144        Se     tau( 144) = (  0.3012300  0.7774545  0.4046683  )
       145        Nb     tau( 145) = (  0.2213716  0.8618613  0.4419776  )
       146        Se     tau( 146) = (  0.3058358  0.0282005  0.4786741  )
       147        Se     tau( 147) = (  0.3047780  0.0275608  0.4053337  )
       148        Nb     tau( 148) = (  0.4714820  0.1119527  0.4414890  )
       149        Se     tau( 149) = (  0.5558448  0.2775738  0.4785800  )
       150        Se     tau( 150) = (  0.5556769  0.2787143  0.4052869  )
       151        Nb     tau( 151) = (  0.4713623  0.3594659  0.4419591  )
       152        Se     tau( 152) = (  0.5554922  0.5290740  0.4774816  )
       153        Se     tau( 153) = (  0.5558840  0.5237587  0.4046466  )
       154        Nb     tau( 154) = (  0.4714120  0.6091039  0.4399066  )
       155        Se     tau( 155) = (  0.5554823  0.7776591  0.4758496  )
       156        Se     tau( 156) = (  0.5555456  0.7777595  0.4036968  )
       157        Nb     tau( 157) = (  0.4710206  0.8618492  0.4399337  )
       158        Se     tau( 158) = (  0.5549894  0.0262412  0.4771766  )
       159        Se     tau( 159) = (  0.5558579  0.0311105  0.4042696  )
       160        Nb     tau( 160) = (  0.7229243  0.1125228  0.4409088  )
       161        Se     tau( 161) = (  0.8056139  0.2771742  0.4781517  )
       162        Se     tau( 162) = (  0.8067320  0.2789621  0.4048786  )
       163        Nb     tau( 163) = (  0.7221353  0.3608997  0.4414503  )
       164        Se     tau( 164) = (  0.8048064  0.5276986  0.4781559  )
       165        Se     tau( 165) = (  0.8055763  0.5267328  0.4048617  )
       166        Nb     tau( 166) = (  0.7228726  0.6103832  0.4408741  )
       167        Se     tau( 167) = (  0.8045386  0.7781593  0.4771811  )
       168        Se     tau( 168) = (  0.8085048  0.7774898  0.4042513  )
       169        Nb     tau( 169) = (  0.7241700  0.8622591  0.4399351  )
       170        Se     tau( 170) = (  0.8042308  0.0263580  0.4775091  )
       171        Se     tau( 171) = (  0.8096384  0.0322939  0.4046881  )
       172        Nb     tau( 172) = (  0.9738831  0.1119184  0.4419836  )
       173        Se     tau( 173) = (  0.0557260  0.2782691  0.4785766  )
       174        Se     tau( 174) = (  0.0546965  0.2770119  0.4052927  )
       175        Nb     tau( 175) = (  0.9725243  0.3613293  0.4414497  )
       176        Se     tau( 176) = (  0.0561692  0.5283499  0.4781632  )
       177        Se     tau( 177) = (  0.0544748  0.5278431  0.4048591  )
       178        Nb     tau( 178) = (  0.9720532  0.6111703  0.4414687  )
       179        Se     tau( 179) = (  0.0550372  0.7773497  0.4785994  )
       180        Se     tau( 180) = (  0.0563372  0.7777348  0.4052988  )
       181        Nb     tau( 181) = (  0.9737269  0.8617707  0.4414933  )
       182        Se     tau( 182) = (  0.0557051  0.0273544  0.4786732  )
       183        Se     tau( 183) = (  0.0561836  0.0286001  0.4053335  )
       184        B      tau( 184) = (  0.0717770  0.1972207  0.5531926  )
       185        B      tau( 185) = (  0.9104316  0.0035627  0.5531377  )
       186        B      tau( 186) = (  0.7491655  0.8100227  0.5532591  )
       187        B      tau( 187) = (  0.5878313  0.6164909  0.5529734  )
       188        B      tau( 188) = (  0.4265085  0.4229748  0.5531334  )
       189        B      tau( 189) = (  0.2652960  0.2294749  0.5531417  )
       190        B      tau( 190) = (  0.1039295  0.0358493  0.5531443  )
       191        B      tau( 191) = (  0.9426645  0.8423059  0.5537272  )
       192        B      tau( 192) = (  0.7814269  0.6487929  0.5534496  )
       193        B      tau( 193) = (  0.6200881  0.4552079  0.5529284  )
       194        B      tau( 194) = (  0.4588202  0.2616284  0.5531943  )
       195        B      tau( 195) = (  0.2975550  0.0681090  0.5531440  )
       196        B      tau( 196) = (  0.1361838  0.8745851  0.5531952  )
       197        B      tau( 197) = (  0.9749477  0.6811089  0.5534208  )
       198        B      tau( 198) = (  0.8136503  0.4875218  0.5530683  )
       199        B      tau( 199) = (  0.6522952  0.2938678  0.5534207  )
       200        B      tau( 200) = (  0.4910994  0.1003886  0.5537250  )
       201        B      tau( 201) = (  0.3298425  0.9068981  0.5531358  )
       202        B      tau( 202) = (  0.1684953  0.7133167  0.5529304  )
       203        B      tau( 203) = (  0.0072464  0.5197527  0.5530700  )
       204        B      tau( 204) = (  0.8458817  0.3261571  0.5530677  )
       205        B      tau( 205) = (  0.6846126  0.1326640  0.5534489  )
       206        B      tau( 206) = (  0.5233838  0.9391732  0.5532562  )
       207        B      tau( 207) = (  0.3620358  0.7455755  0.5529753  )
       208        B      tau( 208) = (  0.2007416  0.5519782  0.5534498  )
       209        B      tau( 209) = (  0.0395370  0.3584561  0.5534198  )
       210        B      tau( 210) = (  0.8781976  0.1649095  0.5529285  )
       211        B      tau( 211) = (  0.7169164  0.9713706  0.5529750  )
       212        B      tau( 212) = (  0.5555949  0.7778127  0.5528597  )
       213        B      tau( 213) = (  0.3942345  0.5842416  0.5532552  )
       214        B      tau( 214) = (  0.2330173  0.3907405  0.5537211  )
       215        N      tau( 215) = (  0.6308776  0.7347694  0.5529962  )
       216        N      tau( 216) = (  0.4695142  0.5412758  0.5531421  )
       217        N      tau( 217) = (  0.3082943  0.3478120  0.5535353  )
       218        N      tau( 218) = (  0.1470107  0.1541993  0.5531307  )
       219        N      tau( 219) = (  0.9855935  0.9605111  0.5535416  )
       220        N      tau( 220) = (  0.8244153  0.7670150  0.5537802  )
       221        N      tau( 221) = (  0.6631746  0.5735311  0.5530703  )
       222        N      tau( 222) = (  0.5017991  0.3799500  0.5529114  )
       223        N      tau( 223) = (  0.3405649  0.1863945  0.5531319  )
       224        N      tau( 224) = (  0.1792052  0.9928399  0.5531331  )
       225        N      tau( 225) = (  0.0179039  0.7993554  0.5537528  )
       226        N      tau( 226) = (  0.8567254  0.6058583  0.5535167  )
       227        N      tau( 227) = (  0.6953422  0.4121813  0.5530858  )
       228        N      tau( 228) = (  0.5340493  0.2185781  0.5537524  )
       229        N      tau( 229) = (  0.3728935  0.0251114  0.5535397  )
       230        N      tau( 230) = (  0.2115260  0.8316057  0.5529123  )
       231        N      tau( 231) = (  0.0502144  0.6380621  0.5530865  )
       232        N      tau( 232) = (  0.8889268  0.4444781  0.5529815  )
       233        N      tau( 233) = (  0.7275467  0.2508968  0.5535169  )
       234        N      tau( 234) = (  0.5663903  0.0574299  0.5537772  )
       235        N      tau( 235) = (  0.4051371  0.8638916  0.5531440  )
       236        N      tau( 236) = (  0.2437320  0.6702306  0.5530738  )
       237        N      tau( 237) = (  0.0825091  0.4766796  0.5535193  )
       238        N      tau( 238) = (  0.9212244  0.2831910  0.5530843  )
       239        N      tau( 239) = (  0.7598749  0.0896734  0.5530717  )
       240        N      tau( 240) = (  0.5986367  0.8961378  0.5529952  )
       241        N      tau( 241) = (  0.4372679  0.7025285  0.5529960  )
       242        N      tau( 242) = (  0.2759766  0.5089907  0.5537740  )
       243        N      tau( 243) = (  0.1148282  0.3155013  0.5537492  )
       244        N      tau( 244) = (  0.9534560  0.1218787  0.5529121  )
       245        N      tau( 245) = (  0.7921307  0.9282678  0.5531468  )

     number of k points=     4  Marzari-Vanderbilt smearing, width (Ry)=  0.0200
                       cart. coord. in units 2pi/alat
        k(    1) = (   0.0000000   0.0000000   0.0000000), wk =   0.2500000
        k(    2) = (   0.0000000  -0.5773505   0.0000000), wk =   0.2500000
        k(    3) = (  -0.5000000  -0.2886753   0.0000000), wk =   0.2500000
        k(    4) = (  -0.5000000  -0.8660258   0.0000000), wk =   0.2500000

                       cryst. coord.
        k(    1) = (   0.0000000   0.0000000   0.0000000), wk =   0.2500000
        k(    2) = (   0.0000000  -0.5000000   0.0000000), wk =   0.2500000
        k(    3) = (  -0.5000000   0.0000000   0.0000000), wk =   0.2500000
        k(    4) = (  -0.5000000  -0.5000000   0.0000000), wk =   0.2500000

     Dense  grid:  7241989 G-vectors     FFT dimensions: ( 180, 180, 576)

     Smooth grid:  2560523 G-vectors     FFT dimensions: ( 125, 125, 384)

     Dynamical RAM for                 wfc:      40.69 MB

     Dynamical RAM for     wfc (w. buffer):     122.06 MB

     Dynamical RAM for           str. fact:       6.91 MB

     Dynamical RAM for           local pot:       0.00 MB

     Dynamical RAM for          nlocal pot:     151.56 MB

     Dynamical RAM for                qrad:       9.63 MB

     Dynamical RAM for          rho,v,vnew:      15.81 MB

     Dynamical RAM for               rhoin:       5.27 MB

     Dynamical RAM for            rho*nmix:     110.50 MB

     Dynamical RAM for           G-vectors:       4.52 MB

     Dynamical RAM for          h,s,v(r/c):       1.83 MB

     Dynamical RAM for          <psi|beta>:      36.38 MB

     Dynamical RAM for                 psi:      81.37 MB

     Dynamical RAM for                hpsi:      81.37 MB

     Dynamical RAM for                spsi:      81.37 MB

     Dynamical RAM for      wfcinit/wfcrot:      96.03 MB

     Dynamical RAM for           addusdens:      78.84 MB

     Dynamical RAM for          addusforce:     124.65 MB

     Dynamical RAM for         addusstress:      59.13 MB

     Estimated static dynamical RAM per process >     332.70 MB

     Estimated max dynamical RAM per process >     725.53 MB

     Estimated total dynamical RAM >     240.99 GB
 ----2D----2D----2D----2D----2D----2D----2D----2D----2D----2D----2D----2D
  The code is running with the 2D cutoff
  Please refer to:
  Sohier, T., Calandra, M., & Mauri, F. (2017), 
  Density functional perturbation theory for gated two-dimensional heterostructures:
  Theoretical developments and application to flexural phonons in graphene.
  Physical Review B, 96(7), 75448. https://doi.org/10.1103/PhysRevB.96.075448
 ----2D----2D----2D----2D----2D----2D----2D----2D----2D----2D----2D----2D
     Generating pointlists ...
     new r_m :   0.0491 (alat units)  1.3246 (a.u.) for type    1
     new r_m :   0.0491 (alat units)  1.3246 (a.u.) for type    2
     new r_m :   0.0757 (alat units)  2.0412 (a.u.) for type    3
     new r_m :   0.0757 (alat units)  2.0412 (a.u.) for type    4
     new r_m :   0.0427 (alat units)  1.1532 (a.u.) for type    5
     new r_m :   0.0427 (alat units)  1.1532 (a.u.) for type    6

     The initial density is read from file :
     ./REDACTED_PATH


     negative rho (up, down):  5.564E-03 5.564E-03
     Starting wfcs from file
     Checking if some PAW data can be deallocated... 
       PAW data deallocated on  276 nodes for type:  1
       PAW data deallocated on  222 nodes for type:  2
       PAW data deallocated on  366 nodes for type:  3
       PAW data deallocated on  353 nodes for type:  5
       PAW data deallocated on  353 nodes for type:  6

     total cpu time spent up to now is       18.4 secs

     per-process dynamical memory:   546.3 Mb

     Self-consistent Calculation

     iteration #  1     ecut=    50.00 Ry     beta= 0.00
     Davidson diagonalization with overlap

---- Real-time Memory Report at c_bands before calling an iterative solver
           608 MiB given to the printing process from OS
           533 MiB allocation reported by mallinfo(arena+hblkhd)
        289141 MiB available memory on the node where the printing process lives
------------------
     c_bands:  1 eigenvalues not converged
     ethr =  1.00E-05,  avg # of iterations = 15.5

     Threshold (ethr) on eigenvalues was too large:
     Diagonalizing with lowered threshold

     Davidson diagonalization with overlap

---- Real-time Memory Report at c_bands before calling an iterative solver
          1118 MiB given to the printing process from OS
           538 MiB allocation reported by mallinfo(arena+hblkhd)
        255845 MiB available memory on the node where the printing process lives
------------------
     ethr =  6.56E-08,  avg # of iterations =  1.8

     negative rho (up, down):  5.564E-03 5.564E-03

     total cpu time spent up to now is      144.0 secs

     total energy              =  -13507.57159872 Ry
     estimated scf accuracy    <       0.00085420 Ry

     total magnetization       =     0.00 Bohr mag/cell
     absolute magnetization    =     0.00 Bohr mag/cell

     iteration #  2     ecut=    50.00 Ry     beta= 0.00
     Davidson diagonalization with overlap

---- Real-time Memory Report at c_bands before calling an iterative solver
          1118 MiB given to the printing process from OS
           587 MiB allocation reported by mallinfo(arena+hblkhd)
        251637 MiB available memory on the node where the printing process lives
------------------
     ethr =  6.59E-08,  avg # of iterations =  1.0

     negative rho (up, down):  5.549E-03 5.549E-03

     total cpu time spent up to now is      193.7 secs

     total energy              =  -13507.57157695 Ry
     estimated scf accuracy    <       0.00084040 Ry

     total magnetization       =     0.00 Bohr mag/cell
     absolute magnetization    =     0.00 Bohr mag/cell

     iteration #  3     ecut=    50.00 Ry     beta= 0.00
     Davidson diagonalization with overlap

---- Real-time Memory Report at c_bands before calling an iterative solver
          1145 MiB given to the printing process from OS
           590 MiB allocation reported by mallinfo(arena+hblkhd)
        252322 MiB available memory on the node where the printing process lives
------------------
     ethr =  6.48E-08,  avg # of iterations =  1.0

     negative rho (up, down):  5.550E-03 5.550E-03

     total cpu time spent up to now is      244.1 secs

     total energy              =  -13507.57158924 Ry
     estimated scf accuracy    <       0.00002988 Ry

     total magnetization       =     0.00 Bohr mag/cell
     absolute magnetization    =     0.00 Bohr mag/cell

     iteration #  4     ecut=    50.00 Ry     beta= 0.00
     Davidson diagonalization with overlap

---- Real-time Memory Report at c_bands before calling an iterative solver
          1151 MiB given to the printing process from OS
           593 MiB allocation reported by mallinfo(arena+hblkhd)
        252060 MiB available memory on the node where the printing process lives
------------------
     ethr =  2.31E-09,  avg # of iterations =  1.0

     negative rho (up, down):  5.551E-03 5.551E-03

     total cpu time spent up to now is      294.7 secs

     total energy              =  -13507.57158971 Ry
     estimated scf accuracy    <       0.00002914 Ry

     total magnetization       =     0.00 Bohr mag/cell
     absolute magnetization    =     0.00 Bohr mag/cell

     iteration #  5     ecut=    50.00 Ry     beta= 0.00
     Davidson diagonalization with overlap

---- Real-time Memory Report at c_bands before calling an iterative solver
          1157 MiB given to the printing process from OS
           596 MiB allocation reported by mallinfo(arena+hblkhd)
        251857 MiB available memory on the node where the printing process lives
------------------
     ethr =  2.25E-09,  avg # of iterations =  1.0

     negative rho (up, down):  5.530E-03 5.530E-03

     total cpu time spent up to now is      343.9 secs

     total energy              =  -13507.57158643 Ry
     estimated scf accuracy    <       0.00003186 Ry

     total magnetization       =     0.00 Bohr mag/cell
     absolute magnetization    =     0.00 Bohr mag/cell

     iteration #  6     ecut=    50.00 Ry     beta= 0.00
     Davidson diagonalization with overlap

---- Real-time Memory Report at c_bands before calling an iterative solver
          1163 MiB given to the printing process from OS
           599 MiB allocation reported by mallinfo(arena+hblkhd)
        251480 MiB available memory on the node where the printing process lives
------------------
     ethr =  2.25E-09,  avg # of iterations =  1.0

     negative rho (up, down):  5.527E-03 5.527E-03

     total cpu time spent up to now is      394.3 secs

     total energy              =  -13507.57158752 Ry
     estimated scf accuracy    <       0.00000994 Ry

     total magnetization       =     0.00 Bohr mag/cell
     absolute magnetization    =     0.00 Bohr mag/cell

     iteration #  7     ecut=    50.00 Ry     beta= 0.00
     Davidson diagonalization with overlap

---- Real-time Memory Report at c_bands before calling an iterative solver
          1166 MiB given to the printing process from OS
           602 MiB allocation reported by mallinfo(arena+hblkhd)
        251059 MiB available memory on the node where the printing process lives
------------------
     ethr =  7.67E-10,  avg # of iterations =  1.0

     negative rho (up, down):  5.528E-03 5.528E-03

     total cpu time spent up to now is      445.5 secs

     total energy              =  -13507.57158761 Ry
     estimated scf accuracy    <       0.00000907 Ry

     total magnetization       =     0.00 Bohr mag/cell
     absolute magnetization    =     0.00 Bohr mag/cell

     iteration #  8     ecut=    50.00 Ry     beta= 0.00
     Davidson diagonalization with overlap

---- Real-time Memory Report at c_bands before calling an iterative solver
          1170 MiB given to the printing process from OS
           604 MiB allocation reported by mallinfo(arena+hblkhd)
        250746 MiB available memory on the node where the printing process lives
------------------
     ethr =  7.00E-10,  avg # of iterations =  1.0

     negative rho (up, down):  5.514E-03 5.514E-03

     total cpu time spent up to now is      496.1 secs

     total energy              =  -13507.57158706 Ry
     estimated scf accuracy    <       0.00000931 Ry

     total magnetization       =     0.00 Bohr mag/cell
     absolute magnetization    =     0.00 Bohr mag/cell

     iteration #  9     ecut=    50.00 Ry     beta= 0.00
     Davidson diagonalization with overlap

---- Real-time Memory Report at c_bands before calling an iterative solver
          1175 MiB given to the printing process from OS
           607 MiB allocation reported by mallinfo(arena+hblkhd)
        250689 MiB available memory on the node where the printing process lives
------------------
     ethr =  7.00E-10,  avg # of iterations =  1.0

     negative rho (up, down):  5.509E-03 5.509E-03

     total cpu time spent up to now is      545.9 secs

     total energy              =  -13507.57158707 Ry
     estimated scf accuracy    <       0.00000447 Ry

     total magnetization       =     0.00 Bohr mag/cell
     absolute magnetization    =     0.00 Bohr mag/cell

     iteration # 10     ecut=    50.00 Ry     beta= 0.00
     Davidson diagonalization with overlap

---- Real-time Memory Report at c_bands before calling an iterative solver
          1179 MiB given to the printing process from OS
           610 MiB allocation reported by mallinfo(arena+hblkhd)
        250398 MiB available memory on the node where the printing process lives
------------------
     ethr =  3.45E-10,  avg # of iterations =  1.0

     negative rho (up, down):  5.509E-03 5.509E-03

     total cpu time spent up to now is      596.8 secs

     total energy              =  -13507.57158712 Ry
     estimated scf accuracy    <       0.00000363 Ry

     total magnetization       =     0.00 Bohr mag/cell
     absolute magnetization    =     0.00 Bohr mag/cell

     iteration # 11     ecut=    50.00 Ry     beta= 0.00
     Davidson diagonalization with overlap

---- Real-time Memory Report at c_bands before calling an iterative solver
          1182 MiB given to the printing process from OS
           613 MiB allocation reported by mallinfo(arena+hblkhd)
        250248 MiB available memory on the node where the printing process lives
------------------
     ethr =  2.80E-10,  avg # of iterations =  1.0

     negative rho (up, down):  5.508E-03 5.508E-03

     total cpu time spent up to now is      647.4 secs

     total energy              =  -13507.57158710 Ry
     estimated scf accuracy    <       0.00000362 Ry

     total magnetization       =     0.00 Bohr mag/cell
     absolute magnetization    =     0.00 Bohr mag/cell

     iteration # 12     ecut=    50.00 Ry     beta= 0.00
     Davidson diagonalization with overlap

---- Real-time Memory Report at c_bands before calling an iterative solver
          1186 MiB given to the printing process from OS
           616 MiB allocation reported by mallinfo(arena+hblkhd)
        249619 MiB available memory on the node where the printing process lives
------------------
     ethr =  2.79E-10,  avg # of iterations =  1.0

     negative rho (up, down):  5.480E-03 5.480E-03

     total cpu time spent up to now is      700.0 secs

     total energy              =  -13507.57158630 Ry
     estimated scf accuracy    <       0.00000354 Ry

     total magnetization       =     0.00 Bohr mag/cell
     absolute magnetization    =     0.00 Bohr mag/cell

     iteration # 13     ecut=    50.00 Ry     beta= 0.00
     Davidson diagonalization with overlap

---- Real-time Memory Report at c_bands before calling an iterative solver
          1189 MiB given to the printing process from OS
           619 MiB allocation reported by mallinfo(arena+hblkhd)
        249363 MiB available memory on the node where the printing process lives
------------------
     ethr =  2.73E-10,  avg # of iterations =  2.0

     negative rho (up, down):  5.476E-03 5.476E-03

     total cpu time spent up to now is      761.2 secs

     total energy              =  -13507.57158646 Ry
     estimated scf accuracy    <       0.00000239 Ry

     total magnetization       =     0.00 Bohr mag/cell
     absolute magnetization    =     0.00 Bohr mag/cell

     iteration # 14     ecut=    50.00 Ry     beta= 0.00
     Davidson diagonalization with overlap

---- Real-time Memory Report at c_bands before calling an iterative solver
          1194 MiB given to the printing process from OS
           622 MiB allocation reported by mallinfo(arena+hblkhd)
        249078 MiB available memory on the node where the printing process lives
------------------
     ethr =  1.85E-10,  avg # of iterations =  1.0

     negative rho (up, down):  5.476E-03 5.476E-03

     total cpu time spent up to now is      815.9 secs

     total energy              =  -13507.57158647 Ry
     estimated scf accuracy    <       0.00000252 Ry

     total magnetization       =     0.00 Bohr mag/cell
     absolute magnetization    =     0.00 Bohr mag/cell

     iteration # 15     ecut=    50.00 Ry     beta= 0.00
     Davidson diagonalization with overlap

---- Real-time Memory Report at c_bands before calling an iterative solver
          1197 MiB given to the printing process from OS
           625 MiB allocation reported by mallinfo(arena+hblkhd)
        249022 MiB available memory on the node where the printing process lives
------------------
     ethr =  1.85E-10,  avg # of iterations =  1.0

     negative rho (up, down):  5.472E-03 5.472E-03

     total cpu time spent up to now is      867.5 secs

     total energy              =  -13507.57158627 Ry
     estimated scf accuracy    <       0.00000251 Ry

     total magnetization       =     0.00 Bohr mag/cell
     absolute magnetization    =     0.00 Bohr mag/cell

     iteration # 16     ecut=    50.00 Ry     beta= 0.00
     Davidson diagonalization with overlap

---- Real-time Memory Report at c_bands before calling an iterative solver
          1199 MiB given to the printing process from OS
           628 MiB allocation reported by mallinfo(arena+hblkhd)
        248542 MiB available memory on the node where the printing process lives
------------------
     ethr =  1.85E-10,  avg # of iterations =  1.0

     negative rho (up, down):  5.457E-03 5.457E-03

     total cpu time spent up to now is      918.2 secs

     total energy              =  -13507.57158608 Ry
     estimated scf accuracy    <       0.00000191 Ry

     total magnetization       =     0.00 Bohr mag/cell
     absolute magnetization    =     0.00 Bohr mag/cell

     iteration # 17     ecut=    50.00 Ry     beta= 0.00
     Davidson diagonalization with overlap

---- Real-time Memory Report at c_bands before calling an iterative solver
          1202 MiB given to the printing process from OS
           631 MiB allocation reported by mallinfo(arena+hblkhd)
        248408 MiB available memory on the node where the printing process lives
------------------
     ethr =  1.47E-10,  avg # of iterations =  1.0

     negative rho (up, down):  5.456E-03 5.456E-03

     total cpu time spent up to now is      968.6 secs

     total energy              =  -13507.57158611 Ry
     estimated scf accuracy    <       0.00000177 Ry

     total magnetization       =     0.00 Bohr mag/cell
     absolute magnetization    =     0.00 Bohr mag/cell

     iteration # 18     ecut=    50.00 Ry     beta= 0.00
     Davidson diagonalization with overlap

---- Real-time Memory Report at c_bands before calling an iterative solver
          1205 MiB given to the printing process from OS
           634 MiB allocation reported by mallinfo(arena+hblkhd)
        248251 MiB available memory on the node where the printing process lives
------------------
     ethr =  1.36E-10,  avg # of iterations =  1.0

     negative rho (up, down):  5.460E-03 5.460E-03

     total cpu time spent up to now is     1020.1 secs

     total energy              =  -13507.57158584 Ry
     estimated scf accuracy    <       0.00000172 Ry

     total magnetization       =     0.00 Bohr mag/cell
     absolute magnetization    =     0.00 Bohr mag/cell

     iteration # 19     ecut=    50.00 Ry     beta= 0.00
     Davidson diagonalization with overlap

---- Real-time Memory Report at c_bands before calling an iterative solver
          1210 MiB given to the printing process from OS
           636 MiB allocation reported by mallinfo(arena+hblkhd)
        247881 MiB available memory on the node where the printing process lives
------------------
     ethr =  1.33E-10,  avg # of iterations =  1.0

     negative rho (up, down):  5.464E-03 5.464E-03

     total cpu time spent up to now is     1072.1 secs

     total energy              =  -13507.57158588 Ry
     estimated scf accuracy    <       0.00000090 Ry

     total magnetization       =     0.00 Bohr mag/cell
     absolute magnetization    =     0.00 Bohr mag/cell

     iteration # 20     ecut=    50.00 Ry     beta= 0.00
     Davidson diagonalization with overlap

---- Real-time Memory Report at c_bands before calling an iterative solver
          1213 MiB given to the printing process from OS
           639 MiB allocation reported by mallinfo(arena+hblkhd)
        247609 MiB available memory on the node where the printing process lives
------------------
     ethr =  6.92E-11,  avg # of iterations =  2.0

     negative rho (up, down):  5.464E-03 5.464E-03

     total cpu time spent up to now is     1130.3 secs

     total energy              =  -13507.57158591 Ry
     estimated scf accuracy    <       0.00000086 Ry

     total magnetization       =     0.00 Bohr mag/cell
     absolute magnetization    =     0.00 Bohr mag/cell

     iteration # 21     ecut=    50.00 Ry     beta= 0.00
     Davidson diagonalization with overlap

---- Real-time Memory Report at c_bands before calling an iterative solver
          1215 MiB given to the printing process from OS
           642 MiB allocation reported by mallinfo(arena+hblkhd)
        247358 MiB available memory on the node where the printing process lives
------------------
     ethr =  6.66E-11,  avg # of iterations =  1.0

     negative rho (up, down):  5.464E-03 5.464E-03

     total cpu time spent up to now is     1180.6 secs

     total energy              =  -13507.57158588 Ry
     estimated scf accuracy    <       0.00000087 Ry

     total magnetization       =     0.00 Bohr mag/cell
     absolute magnetization    =     0.00 Bohr mag/cell

     iteration # 22     ecut=    50.00 Ry     beta= 0.00
     Davidson diagonalization with overlap

---- Real-time Memory Report at c_bands before calling an iterative solver
          1218 MiB given to the printing process from OS
           645 MiB allocation reported by mallinfo(arena+hblkhd)
        247111 MiB available memory on the node where the printing process lives
------------------
     ethr =  6.66E-11,  avg # of iterations =  1.0

     negative rho (up, down):  5.466E-03 5.466E-03

     total cpu time spent up to now is     1232.8 secs

     total energy              =  -13507.57158582 Ry
     estimated scf accuracy    <       0.00000079 Ry

     total magnetization       =     0.00 Bohr mag/cell
     absolute magnetization    =     0.00 Bohr mag/cell

     iteration # 23     ecut=    50.00 Ry     beta= 0.00
     Davidson diagonalization with overlap

---- Real-time Memory Report at c_bands before calling an iterative solver
          1221 MiB given to the printing process from OS
           648 MiB allocation reported by mallinfo(arena+hblkhd)
        246865 MiB available memory on the node where the printing process lives
------------------
     ethr =  6.09E-11,  avg # of iterations =  1.0

     negative rho (up, down):  5.467E-03 5.467E-03

     total cpu time spent up to now is     1284.2 secs

     total energy              =  -13507.57158585 Ry
     estimated scf accuracy    <       0.00000048 Ry

     total magnetization       =     0.00 Bohr mag/cell
     absolute magnetization    =     0.00 Bohr mag/cell

     iteration # 24     ecut=    50.00 Ry     beta= 0.00
     Davidson diagonalization with overlap

---- Real-time Memory Report at c_bands before calling an iterative solver
          1224 MiB given to the printing process from OS
           651 MiB allocation reported by mallinfo(arena+hblkhd)
        246361 MiB available memory on the node where the printing process lives
------------------
     ethr =  3.67E-11,  avg # of iterations =  1.0

     negative rho (up, down):  5.467E-03 5.467E-03

     total cpu time spent up to now is     1334.2 secs

     total energy              =  -13507.57158585 Ry
     estimated scf accuracy    <       0.00000048 Ry

     total magnetization       =     0.00 Bohr mag/cell
     absolute magnetization    =     0.00 Bohr mag/cell

     iteration # 25     ecut=    50.00 Ry     beta= 0.00
     Davidson diagonalization with overlap

---- Real-time Memory Report at c_bands before calling an iterative solver
          1227 MiB given to the printing process from OS
           654 MiB allocation reported by mallinfo(arena+hblkhd)
        246176 MiB available memory on the node where the printing process lives
------------------
     ethr =  3.67E-11,  avg # of iterations =  1.0

     negative rho (up, down):  5.468E-03 5.468E-03

     total cpu time spent up to now is     1385.6 secs

     total energy              =  -13507.57158584 Ry
     estimated scf accuracy    <       0.00000043 Ry

     total magnetization       =     0.00 Bohr mag/cell
     absolute magnetization    =     0.00 Bohr mag/cell

     iteration # 26     ecut=    50.00 Ry     beta= 0.00
     Davidson diagonalization with overlap

---- Real-time Memory Report at c_bands before calling an iterative solver
          1230 MiB given to the printing process from OS
           657 MiB allocation reported by mallinfo(arena+hblkhd)
        245808 MiB available memory on the node where the printing process lives
------------------
     ethr =  3.36E-11,  avg # of iterations =  1.0

     negative rho (up, down):  5.467E-03 5.467E-03

     total cpu time spent up to now is     1436.6 secs

     total energy              =  -13507.57158581 Ry
     estimated scf accuracy    <       0.00000035 Ry

     total magnetization       =     0.00 Bohr mag/cell
     absolute magnetization    =     0.00 Bohr mag/cell

     iteration # 27     ecut=    50.00 Ry     beta= 0.00
     Davidson diagonalization with overlap

---- Real-time Memory Report at c_bands before calling an iterative solver
          1234 MiB given to the printing process from OS
           657 MiB allocation reported by mallinfo(arena+hblkhd)
        245944 MiB available memory on the node where the printing process lives
------------------
     ethr =  2.70E-11,  avg # of iterations =  1.0

     negative rho (up, down):  5.467E-03 5.467E-03

     total cpu time spent up to now is     1487.3 secs

     total energy              =  -13507.57158582 Ry
     estimated scf accuracy    <       0.00000032 Ry

     total magnetization       =     0.00 Bohr mag/cell
     absolute magnetization    =     0.00 Bohr mag/cell

     iteration # 28     ecut=    50.00 Ry     beta= 0.00
     Davidson diagonalization with overlap

---- Real-time Memory Report at c_bands before calling an iterative solver
          1234 MiB given to the printing process from OS
           657 MiB allocation reported by mallinfo(arena+hblkhd)
        245842 MiB available memory on the node where the printing process lives
------------------
     ethr =  2.51E-11,  avg # of iterations =  1.0

     negative rho (up, down):  5.469E-03 5.469E-03

     total cpu time spent up to now is     1537.7 secs

     total energy              =  -13507.57158578 Ry
     estimated scf accuracy    <       0.00000032 Ry

     total magnetization       =     0.00 Bohr mag/cell
     absolute magnetization    =     0.00 Bohr mag/cell

     iteration # 29     ecut=    50.00 Ry     beta= 0.00
     Davidson diagonalization with overlap

---- Real-time Memory Report at c_bands before calling an iterative solver
          1234 MiB given to the printing process from OS
           657 MiB allocation reported by mallinfo(arena+hblkhd)
        245951 MiB available memory on the node where the printing process lives
------------------
     ethr =  2.48E-11,  avg # of iterations =  2.0

     negative rho (up, down):  5.471E-03 5.471E-03

     total cpu time spent up to now is     1595.2 secs

     total energy              =  -13507.57158579 Ry
     estimated scf accuracy    <       0.00000023 Ry

     total magnetization       =     0.00 Bohr mag/cell
     absolute magnetization    =     0.00 Bohr mag/cell

     iteration # 30     ecut=    50.00 Ry     beta= 0.00
     Davidson diagonalization with overlap

---- Real-time Memory Report at c_bands before calling an iterative solver
          1234 MiB given to the printing process from OS
           657 MiB allocation reported by mallinfo(arena+hblkhd)
        245958 MiB available memory on the node where the printing process lives
------------------
     ethr =  1.77E-11,  avg # of iterations =  1.0

     negative rho (up, down):  5.471E-03 5.471E-03

     total cpu time spent up to now is     1649.8 secs

     total energy              =  -13507.57158580 Ry
     estimated scf accuracy    <       0.00000020 Ry

     total magnetization       =     0.00 Bohr mag/cell
     absolute magnetization    =     0.00 Bohr mag/cell

     iteration # 31     ecut=    50.00 Ry     beta= 0.00
     Davidson diagonalization with overlap

---- Real-time Memory Report at c_bands before calling an iterative solver
          1234 MiB given to the printing process from OS
           657 MiB allocation reported by mallinfo(arena+hblkhd)
        245649 MiB available memory on the node where the printing process lives
------------------
     ethr =  1.52E-11,  avg # of iterations =  1.0

     negative rho (up, down):  5.469E-03 5.469E-03

     total cpu time spent up to now is     1705.4 secs

     total energy              =  -13507.57158579 Ry
     estimated scf accuracy    <       0.00000020 Ry

     total magnetization       =     0.00 Bohr mag/cell
     absolute magnetization    =     0.00 Bohr mag/cell

     iteration # 32     ecut=    50.00 Ry     beta= 0.00
     Davidson diagonalization with overlap

---- Real-time Memory Report at c_bands before calling an iterative solver
          1234 MiB given to the printing process from OS
           657 MiB allocation reported by mallinfo(arena+hblkhd)
        245700 MiB available memory on the node where the printing process lives
------------------
     ethr =  1.51E-11,  avg # of iterations =  1.0

     negative rho (up, down):  5.476E-03 5.476E-03

     total cpu time spent up to now is     1758.8 secs

     total energy              =  -13507.57158578 Ry
     estimated scf accuracy    <       0.00000019 Ry

     total magnetization       =     0.00 Bohr mag/cell
     absolute magnetization    =     0.00 Bohr mag/cell

     iteration # 33     ecut=    50.00 Ry     beta= 0.00
     Davidson diagonalization with overlap

---- Real-time Memory Report at c_bands before calling an iterative solver
          1234 MiB given to the printing process from OS
           657 MiB allocation reported by mallinfo(arena+hblkhd)
        245895 MiB available memory on the node where the printing process lives
------------------
     ethr =  1.44E-11,  avg # of iterations =  2.0

     negative rho (up, down):  5.478E-03 5.478E-03

     total cpu time spent up to now is     1818.6 secs

     total energy              =  -13507.57158579 Ry
     estimated scf accuracy    <       0.00000015 Ry

     total magnetization       =     0.00 Bohr mag/cell
     absolute magnetization    =     0.00 Bohr mag/cell

     iteration # 34     ecut=    50.00 Ry     beta= 0.00
     Davidson diagonalization with overlap

---- Real-time Memory Report at c_bands before calling an iterative solver
          1234 MiB given to the printing process from OS
           657 MiB allocation reported by mallinfo(arena+hblkhd)
        245994 MiB available memory on the node where the printing process lives
------------------
     ethr =  1.13E-11,  avg # of iterations =  1.0

     negative rho (up, down):  5.478E-03 5.478E-03

     total cpu time spent up to now is     1868.8 secs

     total energy              =  -13507.57158579 Ry
     estimated scf accuracy    <       0.00000014 Ry

     total magnetization       =     0.00 Bohr mag/cell
     absolute magnetization    =     0.00 Bohr mag/cell

     iteration # 35     ecut=    50.00 Ry     beta= 0.00
     Davidson diagonalization with overlap

---- Real-time Memory Report at c_bands before calling an iterative solver
          1234 MiB given to the printing process from OS
           657 MiB allocation reported by mallinfo(arena+hblkhd)
        245885 MiB available memory on the node where the printing process lives
------------------
     ethr =  1.09E-11,  avg # of iterations =  1.0

     negative rho (up, down):  5.479E-03 5.479E-03

     total cpu time spent up to now is     1920.9 secs

     total energy              =  -13507.57158579 Ry
     estimated scf accuracy    <       0.00000015 Ry

     total magnetization       =     0.00 Bohr mag/cell
     absolute magnetization    =     0.00 Bohr mag/cell

     iteration # 36     ecut=    50.00 Ry     beta= 0.00
     Davidson diagonalization with overlap

---- Real-time Memory Report at c_bands before calling an iterative solver
          1234 MiB given to the printing process from OS
           657 MiB allocation reported by mallinfo(arena+hblkhd)
        245840 MiB available memory on the node where the printing process lives
------------------
     ethr =  1.09E-11,  avg # of iterations =  1.0

     negative rho (up, down):  5.481E-03 5.481E-03

     total cpu time spent up to now is     1973.1 secs

     total energy              =  -13507.57158580 Ry
     estimated scf accuracy    <       0.00000015 Ry

     total magnetization       =     0.00 Bohr mag/cell
     absolute magnetization    =     0.00 Bohr mag/cell

     iteration # 37     ecut=    50.00 Ry     beta= 0.00
     Davidson diagonalization with overlap

---- Real-time Memory Report at c_bands before calling an iterative solver
          1234 MiB given to the printing process from OS
           657 MiB allocation reported by mallinfo(arena+hblkhd)
        245969 MiB available memory on the node where the printing process lives
------------------
     ethr =  1.09E-11,  avg # of iterations =  1.0

     negative rho (up, down):  5.485E-03 5.485E-03

     total cpu time spent up to now is     2022.6 secs

     total energy              =  -13507.57158581 Ry
     estimated scf accuracy    <       0.00000009 Ry

     total magnetization       =     0.00 Bohr mag/cell
     absolute magnetization    =     0.00 Bohr mag/cell

     iteration # 38     ecut=    50.00 Ry     beta= 0.00
     Davidson diagonalization with overlap

---- Real-time Memory Report at c_bands before calling an iterative solver
          1236 MiB given to the printing process from OS
           657 MiB allocation reported by mallinfo(arena+hblkhd)
        245935 MiB available memory on the node where the printing process lives
------------------
     ethr =  7.14E-12,  avg # of iterations =  2.0

     negative rho (up, down):  5.485E-03 5.485E-03

     total cpu time spent up to now is     2081.1 secs

     total energy              =  -13507.57158582 Ry
     estimated scf accuracy    <       0.00000006 Ry

     total magnetization       =     0.00 Bohr mag/cell
     absolute magnetization    =     0.00 Bohr mag/cell

     iteration # 39     ecut=    50.00 Ry     beta= 0.00
     Davidson diagonalization with overlap

---- Real-time Memory Report at c_bands before calling an iterative solver
          1236 MiB given to the printing process from OS
           657 MiB allocation reported by mallinfo(arena+hblkhd)
        245777 MiB available memory on the node where the printing process lives
------------------
     ethr =  4.68E-12,  avg # of iterations =  1.0

     negative rho (up, down):  5.486E-03 5.486E-03

     total cpu time spent up to now is     2132.7 secs

     total energy              =  -13507.57158583 Ry
     estimated scf accuracy    <       0.00000006 Ry

     total magnetization       =     0.00 Bohr mag/cell
     absolute magnetization    =     0.00 Bohr mag/cell

     iteration # 40     ecut=    50.00 Ry     beta= 0.00
     Davidson diagonalization with overlap

---- Real-time Memory Report at c_bands before calling an iterative solver
          1236 MiB given to the printing process from OS
           657 MiB allocation reported by mallinfo(arena+hblkhd)
        245911 MiB available memory on the node where the printing process lives
------------------
     ethr =  4.58E-12,  avg # of iterations =  1.0

     negative rho (up, down):  5.492E-03 5.492E-03

     total cpu time spent up to now is     2183.7 secs

     total energy              =  -13507.57158589 Ry
     estimated scf accuracy    <       0.00000005 Ry

     total magnetization       =     0.00 Bohr mag/cell
     absolute magnetization    =     0.00 Bohr mag/cell

     iteration # 41     ecut=    50.00 Ry     beta= 0.00
     Davidson diagonalization with overlap

---- Real-time Memory Report at c_bands before calling an iterative solver
          1236 MiB given to the printing process from OS
           657 MiB allocation reported by mallinfo(arena+hblkhd)
        246019 MiB available memory on the node where the printing process lives
------------------
     ethr =  4.21E-12,  avg # of iterations =  2.0

     negative rho (up, down):  5.494E-03 5.494E-03

     total cpu time spent up to now is     2241.7 secs

     total energy              =  -13507.57158591 Ry
     estimated scf accuracy    <       0.00000004 Ry

     total magnetization       =     0.00 Bohr mag/cell
     absolute magnetization    =     0.00 Bohr mag/cell

     iteration # 42     ecut=    50.00 Ry     beta= 0.00
     Davidson diagonalization with overlap

---- Real-time Memory Report at c_bands before calling an iterative solver
          1236 MiB given to the printing process from OS
           657 MiB allocation reported by mallinfo(arena+hblkhd)
        245941 MiB available memory on the node where the printing process lives
------------------
     ethr =  3.22E-12,  avg # of iterations =  1.0

     negative rho (up, down):  5.494E-03 5.494E-03

     total cpu time spent up to now is     2292.2 secs

     total energy              =  -13507.57158591 Ry
     estimated scf accuracy    <       0.00000004 Ry

     total magnetization       =     0.00 Bohr mag/cell
     absolute magnetization    =     0.00 Bohr mag/cell

     iteration # 43     ecut=    50.00 Ry     beta= 0.00
     Davidson diagonalization with overlap

---- Real-time Memory Report at c_bands before calling an iterative solver
          1236 MiB given to the printing process from OS
           657 MiB allocation reported by mallinfo(arena+hblkhd)
        245748 MiB available memory on the node where the printing process lives
------------------
     ethr =  2.82E-12,  avg # of iterations =  1.0

     negative rho (up, down):  5.494E-03 5.494E-03

     total cpu time spent up to now is     2344.0 secs

     total energy              =  -13507.57158590 Ry
     estimated scf accuracy    <       0.00000004 Ry

     total magnetization       =     0.00 Bohr mag/cell
     absolute magnetization    =     0.00 Bohr mag/cell

     iteration # 44     ecut=    50.00 Ry     beta= 0.00
     Davidson diagonalization with overlap

---- Real-time Memory Report at c_bands before calling an iterative solver
          1236 MiB given to the printing process from OS
           657 MiB allocation reported by mallinfo(arena+hblkhd)
        245823 MiB available memory on the node where the printing process lives
------------------
     ethr =  2.79E-12,  avg # of iterations =  1.0

     negative rho (up, down):  5.497E-03 5.497E-03

     total cpu time spent up to now is     2395.5 secs

     total energy              =  -13507.57158594 Ry
     estimated scf accuracy    <       0.00000004 Ry

     total magnetization       =     0.00 Bohr mag/cell
     absolute magnetization    =     0.00 Bohr mag/cell

     iteration # 45     ecut=    50.00 Ry     beta= 0.00
     Davidson diagonalization with overlap

---- Real-time Memory Report at c_bands before calling an iterative solver
          1236 MiB given to the printing process from OS
           657 MiB allocation reported by mallinfo(arena+hblkhd)
        245779 MiB available memory on the node where the printing process lives
------------------
     ethr =  2.77E-12,  avg # of iterations =  1.0

     negative rho (up, down):  5.501E-03 5.501E-03

     total cpu time spent up to now is     2446.2 secs

     total energy              =  -13507.57158597 Ry
     estimated scf accuracy    <       0.00000003 Ry

     total magnetization       =     0.00 Bohr mag/cell
     absolute magnetization    =     0.00 Bohr mag/cell

     iteration # 46     ecut=    50.00 Ry     beta= 0.00
     Davidson diagonalization with overlap

---- Real-time Memory Report at c_bands before calling an iterative solver
          1236 MiB given to the printing process from OS
           657 MiB allocation reported by mallinfo(arena+hblkhd)
        245951 MiB available memory on the node where the printing process lives
------------------
     ethr =  2.45E-12,  avg # of iterations =  1.0

     negative rho (up, down):  5.501E-03 5.501E-03

     total cpu time spent up to now is     2496.2 secs

     total energy              =  -13507.57158598 Ry
     estimated scf accuracy    <       0.00000003 Ry

     total magnetization       =     0.00 Bohr mag/cell
     absolute magnetization    =     0.00 Bohr mag/cell

     iteration # 47     ecut=    50.00 Ry     beta= 0.00
     Davidson diagonalization with overlap

---- Real-time Memory Report at c_bands before calling an iterative solver
          1236 MiB given to the printing process from OS
           657 MiB allocation reported by mallinfo(arena+hblkhd)
        245913 MiB available memory on the node where the printing process lives
------------------
     ethr =  2.10E-12,  avg # of iterations =  1.0

     negative rho (up, down):  5.501E-03 5.501E-03

     total cpu time spent up to now is     2548.4 secs

     total energy              =  -13507.57158598 Ry
     estimated scf accuracy    <       0.00000003 Ry

     total magnetization       =     0.00 Bohr mag/cell
     absolute magnetization    =     0.00 Bohr mag/cell

     iteration # 48     ecut=    50.00 Ry     beta= 0.00
     Davidson diagonalization with overlap

---- Real-time Memory Report at c_bands before calling an iterative solver
          1236 MiB given to the printing process from OS
           657 MiB allocation reported by mallinfo(arena+hblkhd)
        245643 MiB available memory on the node where the printing process lives
------------------
     ethr =  2.10E-12,  avg # of iterations =  1.0

     negative rho (up, down):  5.510E-03 5.510E-03

     total cpu time spent up to now is     2607.0 secs

     total energy              =  -13507.57158607 Ry
     estimated scf accuracy    <       0.00000003 Ry

     total magnetization       =     0.00 Bohr mag/cell
     absolute magnetization    =     0.00 Bohr mag/cell

     iteration # 49     ecut=    50.00 Ry     beta= 0.00
     Davidson diagonalization with overlap

---- Real-time Memory Report at c_bands before calling an iterative solver
          1236 MiB given to the printing process from OS
           657 MiB allocation reported by mallinfo(arena+hblkhd)
        245676 MiB available memory on the node where the printing process lives
------------------
     ethr =  2.07E-12,  avg # of iterations =  2.0

     negative rho (up, down):  5.513E-03 5.513E-03

     total cpu time spent up to now is     2669.5 secs

     total energy              =  -13507.57158610 Ry
     estimated scf accuracy    <       0.00000002 Ry

     total magnetization       =     0.00 Bohr mag/cell
     absolute magnetization    =     0.00 Bohr mag/cell

     iteration # 50     ecut=    50.00 Ry     beta= 0.00
     Davidson diagonalization with overlap

---- Real-time Memory Report at c_bands before calling an iterative solver
          1236 MiB given to the printing process from OS
           657 MiB allocation reported by mallinfo(arena+hblkhd)
        245664 MiB available memory on the node where the printing process lives
------------------
     ethr =  1.23E-12,  avg # of iterations =  1.0

     negative rho (up, down):  5.513E-03 5.513E-03

     total cpu time spent up to now is     2723.8 secs

     total energy              =  -13507.57158610 Ry
     estimated scf accuracy    <       0.00000002 Ry

     total magnetization       =     0.00 Bohr mag/cell
     absolute magnetization    =     0.00 Bohr mag/cell

     iteration # 51     ecut=    50.00 Ry     beta= 0.00
     Davidson diagonalization with overlap

---- Real-time Memory Report at c_bands before calling an iterative solver
          1236 MiB given to the printing process from OS
           657 MiB allocation reported by mallinfo(arena+hblkhd)
        245993 MiB available memory on the node where the printing process lives
------------------
     ethr =  1.18E-12,  avg # of iterations =  1.0

     negative rho (up, down):  5.512E-03 5.512E-03

     total cpu time spent up to now is     2773.7 secs

     total energy              =  -13507.57158609 Ry
     estimated scf accuracy    <       0.00000002 Ry

     total magnetization       =     0.00 Bohr mag/cell
     absolute magnetization    =     0.00 Bohr mag/cell

     iteration # 52     ecut=    50.00 Ry     beta= 0.00
     Davidson diagonalization with overlap

---- Real-time Memory Report at c_bands before calling an iterative solver
          1236 MiB given to the printing process from OS
           657 MiB allocation reported by mallinfo(arena+hblkhd)
        246047 MiB available memory on the node where the printing process lives
------------------
     ethr =  1.18E-12,  avg # of iterations =  1.0

     negative rho (up, down):  5.519E-03 5.519E-03

     total cpu time spent up to now is     2825.0 secs

     total energy              =  -13507.57158616 Ry
     estimated scf accuracy    <       0.00000002 Ry

     total magnetization       =     0.00 Bohr mag/cell
     absolute magnetization    =     0.00 Bohr mag/cell

     iteration # 53     ecut=    50.00 Ry     beta= 0.00
     Davidson diagonalization with overlap

---- Real-time Memory Report at c_bands before calling an iterative solver
          1236 MiB given to the printing process from OS
           657 MiB allocation reported by mallinfo(arena+hblkhd)
        245807 MiB available memory on the node where the printing process lives
------------------
     ethr =  1.16E-12,  avg # of iterations =  2.0

     negative rho (up, down):  5.565E-03 5.565E-03

     Magnetic moment per site  (integrated on atomic sphere of radius R)
     atom   1 (R=0.049)  charge=  0.2701  magn= -0.0000
     atom   2 (R=0.049)  charge=  0.2681  magn=  0.0000
     atom   3 (R=0.049)  charge=  0.2713  magn= -0.0000
     atom   4 (R=0.049)  charge=  0.2983  magn=  0.0000
     atom   5 (R=0.049)  charge=  0.3224  magn= -0.0000
     atom   6 (R=0.049)  charge=  0.2521  magn= -0.0000
     atom   7 (R=0.049)  charge=  4.7501  magn=  0.0000
     atom   8 (R=0.049)  charge=  4.7501  magn= -0.0000
     atom   9 (R=0.049)  charge=  4.7501  magn= -0.0000
     atom  10 (R=0.049)  charge=  4.8436  magn=  0.0000
     atom  11 (R=0.049)  charge=  4.8445  magn=  0.0000
     atom  12 (R=0.049)  charge=  4.8436  magn= -0.0000
     atom  13 (R=0.049)  charge=  4.8099  magn=  0.0000
     atom  14 (R=0.049)  charge=  4.8099  magn=  0.0000
     atom  15 (R=0.049)  charge=  4.8099  magn= -0.0000
     atom  16 (R=0.049)  charge=  0.2701  magn=  0.0000
     atom  17 (R=0.049)  charge=  0.2681  magn=  0.0000
     atom  18 (R=0.049)  charge=  0.2713  magn= -0.0000
     atom  19 (R=0.049)  charge=  0.2983  magn=  0.0000
     atom  20 (R=0.049)  charge=  0.3228  magn=  0.0000
     atom  21 (R=0.049)  charge=  0.2521  magn=  0.0000
     atom  22 (R=0.049)  charge=  4.7499  magn= -0.0000
     atom  23 (R=0.049)  charge=  4.7497  magn= -0.0000
     atom  24 (R=0.049)  charge=  4.7501  magn= -0.0000
     atom  25 (R=0.049)  charge=  4.8443  magn=  0.0000
     atom  26 (R=0.049)  charge=  4.8432  magn=  0.0000
     atom  27 (R=0.049)  charge=  4.8438  magn=  0.0000
     atom  28 (R=0.049)  charge=  4.8100  magn= -0.0000
     atom  29 (R=0.049)  charge=  4.8098  magn=  0.0000
     atom  30 (R=0.049)  charge=  4.8098  magn=  0.0000
     atom  31 (R=0.049)  charge=  0.2701  magn= -0.0000
     atom  32 (R=0.049)  charge=  0.2681  magn=  0.0000
     atom  33 (R=0.049)  charge=  0.2713  magn= -0.0000
     atom  34 (R=0.049)  charge=  0.2983  magn=  0.0000
     atom  35 (R=0.049)  charge=  0.3227  magn= -0.0000
     atom  36 (R=0.049)  charge=  0.2521  magn= -0.0000
     atom  37 (R=0.049)  charge=  4.7497  magn= -0.0000
     atom  38 (R=0.049)  charge=  4.7500  magn= -0.0000
     atom  39 (R=0.049)  charge=  4.7501  magn= -0.0000
     atom  40 (R=0.049)  charge=  4.8436  magn= -0.0000
     atom  41 (R=0.049)  charge=  4.8436  magn=  0.0000
     atom  42 (R=0.049)  charge=  4.8445  magn=  0.0000
     atom  43 (R=0.049)  charge=  4.8101  magn= -0.0000
     atom  44 (R=0.049)  charge=  4.8100  magn= -0.0000
     atom  45 (R=0.049)  charge=  4.8099  magn= -0.0000
     atom  46 (R=0.049)  charge=  0.2701  magn=  0.0000
     atom  47 (R=0.049)  charge=  0.2681  magn=  0.0000
     atom  48 (R=0.049)  charge=  0.2713  magn= -0.0000
     atom  49 (R=0.049)  charge=  0.2983  magn= -0.0000
     atom  50 (R=0.049)  charge=  0.3228  magn=  0.0000
     atom  51 (R=0.049)  charge=  0.2521  magn= -0.0000
     atom  52 (R=0.049)  charge=  4.7497  magn= -0.0000
     atom  53 (R=0.049)  charge=  4.7501  magn= -0.0000
     atom  54 (R=0.049)  charge=  4.7499  magn= -0.0000
     atom  55 (R=0.049)  charge=  4.8445  magn=  0.0000
     atom  56 (R=0.049)  charge=  4.8436  magn= -0.0000
     atom  57 (R=0.049)  charge=  4.8436  magn=  0.0000
     atom  58 (R=0.049)  charge=  4.8101  magn=  0.0000
     atom  59 (R=0.049)  charge=  4.8099  magn= -0.0000
     atom  60 (R=0.049)  charge=  4.8100  magn= -0.0000
     atom  61 (R=0.049)  charge=  0.2701  magn=  0.0000
     atom  62 (R=0.049)  charge=  0.2682  magn=  0.0000
     atom  63 (R=0.049)  charge=  0.2713  magn= -0.0000
     atom  64 (R=0.049)  charge=  0.2983  magn=  0.0000
     atom  65 (R=0.049)  charge=  0.3227  magn=  0.0000
     atom  66 (R=0.049)  charge=  0.2522  magn= -0.0000
     atom  67 (R=0.049)  charge=  4.7501  magn= -0.0000
     atom  68 (R=0.049)  charge=  4.7497  magn=  0.0000
     atom  69 (R=0.049)  charge=  4.7500  magn= -0.0000
     atom  70 (R=0.049)  charge=  4.8456  magn=  0.0000
     atom  71 (R=0.049)  charge=  4.8450  magn=  0.0000
     atom  72 (R=0.049)  charge=  4.8440  magn=  0.0000
     atom  73 (R=0.049)  charge=  4.8099  magn=  0.0000
     atom  74 (R=0.049)  charge=  4.8101  magn=  0.0000
     atom  75 (R=0.049)  charge=  4.8099  magn=  0.0000
     atom  76 (R=0.049)  charge=  0.2701  magn=  0.0000
     atom  77 (R=0.049)  charge=  0.2682  magn=  0.0000
     atom  78 (R=0.049)  charge=  0.2713  magn=  0.0000
     atom  79 (R=0.049)  charge=  0.2983  magn=  0.0000
     atom  80 (R=0.049)  charge=  0.3241  magn=  0.0000
     atom  81 (R=0.049)  charge=  0.2522  magn= -0.0000
     atom  82 (R=0.049)  charge=  4.7495  magn= -0.0000
     atom  83 (R=0.049)  charge=  4.7495  magn=  0.0000
     atom  84 (R=0.049)  charge=  4.7495  magn=  0.0000
     atom  85 (R=0.049)  charge=  4.8450  magn=  0.0000
     atom  86 (R=0.049)  charge=  4.8440  magn=  0.0000
     atom  87 (R=0.049)  charge=  4.8456  magn=  0.0000
     atom  88 (R=0.049)  charge=  4.8102  magn=  0.0000
     atom  89 (R=0.049)  charge=  4.8099  magn=  0.0000
     atom  90 (R=0.049)  charge=  4.8102  magn=  0.0000
     atom  91 (R=0.049)  charge=  0.2701  magn= -0.0000
     atom  92 (R=0.049)  charge=  0.2681  magn=  0.0000
     atom  93 (R=0.049)  charge=  0.2713  magn=  0.0000
     atom  94 (R=0.049)  charge=  0.2983  magn=  0.0000
     atom  95 (R=0.049)  charge=  0.3227  magn=  0.0000
     atom  96 (R=0.049)  charge=  0.2521  magn= -0.0000
     atom  97 (R=0.049)  charge=  4.7500  magn=  0.0000
     atom  98 (R=0.049)  charge=  4.7500  magn=  0.0000
     atom  99 (R=0.049)  charge=  4.7497  magn=  0.0000
     atom 100 (R=0.049)  charge=  4.8432  magn=  0.0000
     atom 101 (R=0.049)  charge=  4.8438  magn=  0.0000
     atom 102 (R=0.049)  charge=  4.8443  magn=  0.0000
     atom 103 (R=0.049)  charge=  4.8099  magn= -0.0000
     atom 104 (R=0.049)  charge=  4.8098  magn=  0.0000
     atom 105 (R=0.049)  charge=  4.8101  magn= -0.0000
     atom 106 (R=0.049)  charge=  0.2700  magn=  0.0000
     atom 107 (R=0.049)  charge=  0.2681  magn=  0.0000
     atom 108 (R=0.049)  charge=  0.2713  magn=  0.0000
     atom 109 (R=0.049)  charge=  0.2983  magn=  0.0000
     atom 110 (R=0.049)  charge=  0.3226  magn= -0.0000
     atom 111 (R=0.049)  charge=  0.2521  magn= -0.0000
     atom 112 (R=0.049)  charge=  4.7502  magn= -0.0000
     atom 113 (R=0.049)  charge=  4.7502  magn= -0.0000
     atom 114 (R=0.049)  charge=  4.7502  magn= -0.0000
     atom 115 (R=0.049)  charge=  4.8438  magn=  0.0000
     atom 116 (R=0.049)  charge=  4.8443  magn=  0.0000
     atom 117 (R=0.049)  charge=  4.8432  magn=  0.0000
     atom 118 (R=0.049)  charge=  4.8098  magn=  0.0000
     atom 119 (R=0.049)  charge=  4.8101  magn= -0.0000
     atom 120 (R=0.049)  charge=  4.8098  magn=  0.0000
     atom 121 (R=0.049)  charge=  0.2701  magn=  0.0000
     atom 122 (R=0.049)  charge=  0.2682  magn=  0.0000
     atom 123 (R=0.049)  charge=  0.2713  magn= -0.0000
     atom 124 (R=0.049)  charge=  0.2983  magn=  0.0000
     atom 125 (R=0.049)  charge=  0.3228  magn=  0.0000
     atom 126 (R=0.049)  charge=  0.2522  magn= -0.0000
     atom 127 (R=0.049)  charge=  4.7501  magn=  0.0000
     atom 128 (R=0.049)  charge=  4.7499  magn=  0.0000
     atom 129 (R=0.049)  charge=  4.7497  magn= -0.0000
     atom 130 (R=0.049)  charge=  4.8440  magn=  0.0000
     atom 131 (R=0.049)  charge=  4.8456  magn=  0.0000
     atom 132 (R=0.049)  charge=  4.8450  magn=  0.0000
     atom 133 (R=0.049)  charge=  4.8098  magn=  0.0000
     atom 134 (R=0.049)  charge=  4.8102  magn= -0.0000
     atom 135 (R=0.049)  charge=  4.8101  magn=  0.0000
     atom 136 (R=0.076)  charge= 10.0982  magn=  0.0000
     atom 137 (R=0.076)  charge=  4.0607  magn=  0.0000
     atom 138 (R=0.076)  charge=  4.0600  magn=  0.0000
     atom 139 (R=0.076)  charge= 10.0981  magn=  0.0000
     atom 140 (R=0.076)  charge=  4.0613  magn=  0.0000
     atom 141 (R=0.076)  charge=  4.0639  magn=  0.0000
     atom 142 (R=0.076)  charge= 10.0975  magn=  0.0000
     atom 143 (R=0.076)  charge=  4.0589  magn=  0.0000
     atom 144 (R=0.076)  charge=  4.0693  magn=  0.0000
     atom 145 (R=0.076)  charge= 10.1007  magn=  0.0000
     atom 146 (R=0.076)  charge=  4.0606  magn=  0.0000
     atom 147 (R=0.076)  charge=  4.0602  magn=  0.0000
     atom 148 (R=0.076)  charge= 10.0981  magn=  0.0000
     atom 149 (R=0.076)  charge=  4.0599  magn=  0.0000
     atom 150 (R=0.076)  charge=  4.0612  magn=  0.0000
     atom 151 (R=0.076)  charge= 10.1006  magn=  0.0000
     atom 152 (R=0.076)  charge=  4.0590  magn=  0.0000
     atom 153 (R=0.076)  charge=  4.0693  magn=  0.0000
     atom 154 (R=0.076)  charge= 10.0959  magn=  0.0000
     atom 155 (R=0.076)  charge=  4.0594  magn=  0.0000
     atom 156 (R=0.076)  charge=  4.0775  magn=  0.0000
     atom 157 (R=0.076)  charge= 10.0955  magn=  0.0000
     atom 158 (R=0.076)  charge=  4.0611  magn=  0.0000
     atom 159 (R=0.076)  charge=  4.0640  magn=  0.0000
     atom 160 (R=0.076)  charge= 10.0976  magn=  0.0000
     atom 161 (R=0.076)  charge=  4.0593  magn=  0.0000
     atom 162 (R=0.076)  charge=  4.0584  magn=  0.0000
     atom 163 (R=0.076)  charge= 10.0964  magn=  0.0000
     atom 164 (R=0.076)  charge=  4.0593  magn=  0.0000
     atom 165 (R=0.076)  charge=  4.0583  magn=  0.0000
     atom 166 (R=0.076)  charge= 10.0979  magn=  0.0000
     atom 167 (R=0.076)  charge=  4.0611  magn=  0.0000
     atom 168 (R=0.076)  charge=  4.0640  magn=  0.0000
     atom 169 (R=0.076)  charge= 10.0953  magn=  0.0000
     atom 170 (R=0.076)  charge=  4.0588  magn=  0.0000
     atom 171 (R=0.076)  charge=  4.0693  magn=  0.0000
     atom 172 (R=0.076)  charge= 10.1007  magn=  0.0000
     atom 173 (R=0.076)  charge=  4.0599  magn=  0.0000
     atom 174 (R=0.076)  charge=  4.0613  magn=  0.0000
     atom 175 (R=0.076)  charge= 10.0966  magn=  0.0000
     atom 176 (R=0.076)  charge=  4.0592  magn=  0.0000
     atom 177 (R=0.076)  charge=  4.0583  magn=  0.0000
     atom 178 (R=0.076)  charge= 10.0962  magn=  0.0000
     atom 179 (R=0.076)  charge=  4.0598  magn=  0.0000
     atom 180 (R=0.076)  charge=  4.0612  magn=  0.0000
     atom 181 (R=0.076)  charge= 10.0979  magn=  0.0000
     atom 182 (R=0.076)  charge=  4.0607  magn=  0.0000
     atom 183 (R=0.076)  charge=  4.0601  magn=  0.0000
     atom 184 (R=0.043)  charge=  0.8920  magn=  0.0000
     atom 185 (R=0.043)  charge=  0.8928  magn=  0.0000
     atom 186 (R=0.043)  charge=  0.8929  magn= -0.0000
     atom 187 (R=0.043)  charge=  0.8926  magn= -0.0000
     atom 188 (R=0.043)  charge=  0.8928  magn=  0.0000
     atom 189 (R=0.043)  charge=  0.8913  magn= -0.0000
     atom 190 (R=0.043)  charge=  0.8913  magn=  0.0000
     atom 191 (R=0.043)  charge=  0.8932  magn= -0.0000
     atom 192 (R=0.043)  charge=  0.8929  magn= -0.0000
     atom 193 (R=0.043)  charge=  0.8922  magn=  0.0000
     atom 194 (R=0.043)  charge=  0.8920  magn= -0.0000
     atom 195 (R=0.043)  charge=  0.8913  magn= -0.0000
     atom 196 (R=0.043)  charge=  0.8920  magn=  0.0000
     atom 197 (R=0.043)  charge=  0.8924  magn= -0.0000
     atom 198 (R=0.043)  charge=  0.8909  magn= -0.0000
     atom 199 (R=0.043)  charge=  0.8924  magn= -0.0000
     atom 200 (R=0.043)  charge=  0.8932  magn=  0.0000
     atom 201 (R=0.043)  charge=  0.8928  magn=  0.0000
     atom 202 (R=0.043)  charge=  0.8922  magn=  0.0000
     atom 203 (R=0.043)  charge=  0.8909  magn=  0.0000
     atom 204 (R=0.043)  charge=  0.8909  magn= -0.0000
     atom 205 (R=0.043)  charge=  0.8929  magn= -0.0000
     atom 206 (R=0.043)  charge=  0.8929  magn= -0.0000
     atom 207 (R=0.043)  charge=  0.8925  magn=  0.0000
     atom 208 (R=0.043)  charge=  0.8929  magn= -0.0000
     atom 209 (R=0.043)  charge=  0.8924  magn= -0.0000
     atom 210 (R=0.043)  charge=  0.8922  magn=  0.0000
     atom 211 (R=0.043)  charge=  0.8926  magn=  0.0000
     atom 212 (R=0.043)  charge=  0.8919  magn= -0.0000
     atom 213 (R=0.043)  charge=  0.8929  magn= -0.0000
     atom 214 (R=0.043)  charge=  0.8932  magn= -0.0000
     atom 215 (R=0.043)  charge=  2.9327  magn=  0.0000
     atom 216 (R=0.043)  charge=  2.9331  magn=  0.0000
     atom 217 (R=0.043)  charge=  2.9338  magn=  0.0000
     atom 218 (R=0.043)  charge=  2.9331  magn=  0.0000
     atom 219 (R=0.043)  charge=  2.9339  magn=  0.0000
     atom 220 (R=0.043)  charge=  2.9334  magn=  0.0000
     atom 221 (R=0.043)  charge=  2.9336  magn=  0.0000
     atom 222 (R=0.043)  charge=  2.9331  magn=  0.0000
     atom 223 (R=0.043)  charge=  2.9331  magn=  0.0000
     atom 224 (R=0.043)  charge=  2.9331  magn=  0.0000
     atom 225 (R=0.043)  charge=  2.9335  magn=  0.0000
     atom 226 (R=0.043)  charge=  2.9333  magn=  0.0000
     atom 227 (R=0.043)  charge=  2.9339  magn=  0.0000
     atom 228 (R=0.043)  charge=  2.9336  magn=  0.0000
     atom 229 (R=0.043)  charge=  2.9339  magn=  0.0000
     atom 230 (R=0.043)  charge=  2.9332  magn=  0.0000
     atom 231 (R=0.043)  charge=  2.9339  magn=  0.0000
     atom 232 (R=0.043)  charge=  2.9336  magn=  0.0000
     atom 233 (R=0.043)  charge=  2.9333  magn=  0.0000
     atom 234 (R=0.043)  charge=  2.9333  magn=  0.0000
     atom 235 (R=0.043)  charge=  2.9331  magn=  0.0000
     atom 236 (R=0.043)  charge=  2.9337  magn=  0.0000
     atom 237 (R=0.043)  charge=  2.9333  magn=  0.0000
     atom 238 (R=0.043)  charge=  2.9339  magn=  0.0000
     atom 239 (R=0.043)  charge=  2.9337  magn=  0.0000
     atom 240 (R=0.043)  charge=  2.9328  magn=  0.0000
     atom 241 (R=0.043)  charge=  2.9328  magn=  0.0000
     atom 242 (R=0.043)  charge=  2.9333  magn=  0.0000
     atom 243 (R=0.043)  charge=  2.9335  magn=  0.0000
     atom 244 (R=0.043)  charge=  2.9332  magn=  0.0000
     atom 245 (R=0.043)  charge=  2.9331  magn=  0.0000

     total cpu time spent up to now is     2882.2 secs

     End of self-consistent calculation

 ------ SPIN UP ------------


          k = 0.0000 0.0000 0.0000 (320189 PWs)   bands (ev):

   -59.6888 -59.6845 -59.6833 -59.6479 -59.6467 -59.6463 -59.6273 -59.6240
   -59.6236 -59.6228 -59.6200 -59.6195 -59.6152 -59.6149 -59.6141 -59.6026
   -35.8327 -35.8321 -35.8318 -35.8026 -35.7917 -35.7876 -35.7874 -35.7805
   -35.7803 -35.7448 -35.7444 -35.7364 -35.7313 -35.7286 -35.7284 -35.7190
   -35.7185 -35.7164 -35.7143 -35.7067 -35.7023 -35.7020 -35.6998 -35.6988
   -35.6746 -35.6738 -35.6735 -35.6704 -35.6683 -35.6677 -35.6599 -35.6570
   -35.6557 -35.6555 -35.6513 -35.6511 -35.6449 -35.6446 -35.6443 -35.6384
   -35.6381 -35.6360 -35.6341 -35.6322 -35.6319 -35.6254 -35.6232 -35.6232
   -23.8135 -23.3735 -23.3618 -23.3618 -23.3163 -23.3162 -23.3018 -22.7563
   -22.7563 -22.7392 -22.4627 -22.4626 -22.4223 -22.4063 -22.4062 -22.3905
   -22.3845 -22.3539 -22.3537 -22.3517 -22.1752 -22.1752 -22.1665 -22.1625
   -22.1625 -22.1581 -21.9174 -21.9109 -21.8351 -21.8231 -21.8144 -21.8143
   -21.7920 -21.7906 -21.7906 -21.7474 -21.7473 -21.7352 -21.6931 -21.6930
   -21.6820 -21.6724 -21.6723 -21.6497 -21.6425 -21.6424 -21.5478 -21.5477
   -21.5350 -21.5276 -21.5275 -21.5122 -21.5057 -21.5056 -21.4407 -21.4404
   -21.4403 -21.3931 -21.3846 -21.3845 -21.3399 -21.3397 -21.3348 -21.3341
   -21.3340 -21.3317 -21.3317 -21.3306 -21.2788 -21.2764 -21.1962 -21.1962
   -21.1924 -21.1923 -21.1042 -21.1027 -21.1027 -21.1014 -21.1011 -21.1010
   -20.9843 -20.9840 -20.9840 -20.9784 -20.9777 -20.9777 -20.8877 -20.8877
   -20.2786 -20.2784 -20.2780 -20.2780 -20.2777 -20.2777 -19.8377 -19.8373
   -19.8373 -19.8353 -19.8353 -19.8352 -19.0027 -19.0027 -19.0021 -19.0011
   -19.0002 -19.0002 -18.8273 -18.8273 -18.8269 -18.8269 -18.8247 -18.8238
   -17.8812 -17.3729 -17.3646 -17.3642 -17.3374 -17.3370 -17.3163 -16.8765
   -16.8220 -16.7878 -16.7423 -16.7422 -16.7065 -16.7062 -16.6884 -16.6872
   -16.6869 -16.6586 -16.6577 -16.6574 -16.6340 -16.6337 -16.6247 -16.4241
   -16.4083 -16.3894 -16.3892 -16.3619 -16.3618 -16.3593 -16.3531 -16.3530
   -13.0752 -13.0751 -13.0751 -13.0735 -13.0735 -13.0730 -12.3056 -12.3051
   -12.3039 -12.3039 -12.3034 -12.3033 -11.7537 -11.7537 -11.7534 -11.7502
   -11.7501 -11.7501 -11.1029 -11.0624 -11.0594 -11.0593 -11.0336 -11.0335
   -11.0276 -10.8410 -10.8408 -10.8403 -10.8403 -10.8398 -10.8398 -10.7252
   -10.7203 -10.7202 -10.6996 -10.6977 -10.6977 -10.5935 -10.5931 -10.5931
   -10.5915 -10.5914 -10.5908 -10.5501 -10.5421 -10.5218 -10.5217 -10.5200
   -10.5159 -10.5158 -10.5028 -10.4913 -10.4906 -10.4905 -10.3158 -10.3158
   -10.1045 -10.1045 -10.0901 -10.0901 -10.0801 -10.0629 -10.0628 -10.0530
   -10.0516 -10.0515  -9.8033  -9.7054  -9.7044  -9.7043  -9.6813  -9.6810
    -9.6810  -9.6318  -9.5529  -9.5506  -9.4793  -9.4793  -9.3299  -9.3299
    -9.3224  -9.2760  -9.2629  -9.2628  -9.2432  -9.2018  -9.2017  -9.1914
    -9.1639  -9.1639  -9.1638  -9.1616  -9.1616  -9.1615  -9.1437  -9.1436
    -9.0657  -9.0549  -9.0548  -9.0486  -9.0439  -9.0438  -8.9778  -8.9723
    -8.9690  -8.9690  -8.9651  -8.9650  -8.9597  -8.9362  -8.9336  -8.9335
    -8.9293  -8.8368  -8.8367  -8.6643  -8.6643  -8.6564  -8.6561  -8.6549
    -8.6458  -8.6452  -8.6383  -8.6076  -8.6063  -8.6063  -8.6030  -8.6030
    -8.6010  -8.5926  -8.5789  -8.5788  -8.5580  -8.5578  -8.5458  -8.5054
    -8.5053  -8.5049  -8.5022  -8.5021  -8.5021  -8.4897  -8.3751  -8.3749
    -8.3693  -8.3456  -8.3443  -8.3442  -8.3405  -8.3357  -8.3354  -8.3146
    -8.3074  -8.3072  -8.2952  -8.2951  -8.2945  -8.2524  -8.2469  -8.2466
    -8.2010  -8.2010  -8.1974  -8.1973  -8.1972  -8.1958  -8.1645  -8.1567
    -8.1566  -8.1504  -8.0823  -8.0822  -8.0745  -8.0675  -8.0674  -8.0611
    -8.0316  -8.0225  -8.0192  -8.0191  -7.9878  -7.9877  -7.9223  -7.8841
    -7.8839  -7.8780  -7.8613  -7.8611  -7.8491  -7.8442  -7.8358  -7.8357
    -7.8085  -7.7996  -7.7993  -7.7630  -7.7629  -7.7601  -7.7482  -7.7436
    -7.7435  -7.7285  -7.7283  -7.7092  -7.4413  -7.4302  -7.4300  -7.4249
    -7.4247  -7.4170  -7.4002  -7.3876  -7.3875  -7.3745  -7.3519  -7.3518
    -7.3507  -7.3440  -7.3439  -7.3236  -7.3212  -7.3211  -7.2180  -7.2179
    -7.2022  -7.1895  -7.1887  -7.1887  -7.1414  -7.1299  -7.1298  -7.0871
    -7.0870  -7.0855  -7.0605  -7.0604  -7.0603  -7.0255  -7.0181  -7.0159
    -7.0158  -7.0141  -7.0127  -7.0126  -7.0048  -7.0012  -7.0010  -6.9567
    -6.9565  -6.9492  -6.9412  -6.9411  -6.9221  -6.9118  -6.9117  -6.9117
    -6.8711  -6.8710  -6.8604  -6.8577  -6.8575  -6.8413  -6.8237  -6.8232
    -6.8189  -6.8164  -6.8163  -6.8080  -6.8048  -6.8045  -6.7971  -6.7958
    -6.7924  -6.7748  -6.7744  -6.7744  -6.7654  -6.7653  -6.7566  -6.6901
    -6.6901  -6.6897  -6.6532  -6.6532  -6.6466  -6.6336  -6.6336  -6.6183
    -6.6007  -6.6007  -6.5591  -6.5590  -6.5564  -6.5342  -6.5341  -6.5196
    -6.5195  -6.5151  -6.4967  -6.4966  -6.4632  -6.4630  -6.4436  -6.4351
    -6.3927  -6.3769  -6.3768  -6.3665  -6.3618  -6.3617  -6.3485  -6.3481
    -6.3421  -6.3312  -6.3311  -6.3243  -6.1834  -6.1834  -6.1330  -6.1073
    -6.1072  -6.0995  -6.0879  -6.0879  -6.0870  -6.0735  -6.0675  -6.0674
    -6.0546  -6.0546  -6.0528  -6.0528  -6.0413  -6.0206  -6.0205  -6.0053
    -6.0053  -5.9939  -5.9757  -5.9753  -5.9565  -5.9380  -5.9375  -5.9330
    -5.9277  -5.9275  -5.9217  -5.9014  -5.9009  -5.9007  -5.8777  -5.7532
    -5.7531  -5.7410  -5.7285  -5.7283  -5.7204  -5.6827  -5.6555  -5.6554
    -5.6411  -5.6129  -5.6097  -5.6097  -5.5735  -5.5734  -5.5532  -5.5530
    -5.5344  -5.5342  -5.5272  -5.5216  -5.5213  -5.4918  -5.4597  -5.4596
    -5.4509  -5.4442  -5.4441  -5.4303  -5.4180  -5.4085  -5.4084  -5.3953
    -5.3950  -5.3619  -5.3619  -5.3465  -5.3343  -5.3300  -5.3298  -5.3127
    -5.3125  -5.3078  -5.2822  -5.2437  -5.2433  -5.2058  -5.2058  -5.1932
    -5.1765  -5.1765  -5.1505  -5.1485  -5.1484  -5.1397  -5.1303  -5.1202
    -5.1201  -5.1122  -5.0990  -5.0988  -5.0972  -5.0673  -5.0478  -5.0477
    -4.9998  -4.9801  -4.9797  -4.9658  -4.9431  -4.9430  -4.7615  -4.7615
    -4.7592  -4.7571  -4.7571  -4.7537  -4.7484  -4.7483  -4.5618  -4.5617
    -4.5595  -4.5068  -4.5068  -4.4679  -4.4498  -4.4498  -4.4442  -4.4439
    -4.4437  -4.4253  -4.4250  -4.4207  -4.4083  -4.4025  -4.4019  -4.0516
    -3.7320  -3.7315  -3.7315  -3.7233  -3.7233  -3.7225  -3.5826  -3.5826
    -3.5686  -2.3073  -2.3066  -2.3060  -2.2752  -2.2747  -2.2704  -2.2404
    -2.2403  -2.2182  -2.0673  -2.0671  -2.0575  -2.0442  -2.0439  -2.0049
    -1.9578  -1.9533  -1.9496  -1.9485  -1.9294  -1.9294  -1.8759  -1.8754
    -1.8729  -1.8297  -1.8238  -1.7469  -1.7466  -1.7036  -1.6999  -1.6996
    -1.6941  -1.6936  -1.6657  -1.6654  -1.6642  -1.6468  -1.6464  -1.4740
    -1.4738  -1.3524  -1.3423  -1.2121  -1.2111  -1.2044  -1.2035  -1.0473
    -0.8362  -0.8351  -0.8343  -0.8319  -0.8278  -0.8274  -0.8046  -0.8045
    -0.7999  -0.4581  -0.4566  -0.4565  -0.4548  -0.4548  -0.4540  -0.3669
    -0.3292  -0.3140  -0.3133  -0.2765  -0.2688  -0.2687  -0.2516  -0.2515
    -0.0840   0.0853   0.0853   0.1176   0.1204   0.1225   0.1225   0.1318
     0.1319   0.2005   0.2008   0.3076   0.3103   0.3104   0.3452   0.3452
     0.3453   0.5531   0.6136   0.6154   0.6154   0.6174   0.6174   0.6175
     0.7117   0.8332   0.8337   0.9758   1.1176   1.3280   1.3283   1.3781
     1.3982   1.4184   1.4185   1.4392   1.4980   1.4981   1.5144   1.5472
     1.5816   1.5818   1.6328   1.6328   1.6957   1.7289   1.7292   1.8451
     1.8638   1.8639   1.8707   1.8726   1.8727   1.8840   1.9093   1.9094
     2.0974   2.1635   2.2320   2.2352   2.2352   2.2530   2.2548   2.3347

     occupation numbers 
     1.0000   1.0000   1.0000   1.0000   1.0000   1.0000   1.0000   1.0000
     1.0000   1.0000   1.0000   1.0000   1.0000   1.0000   1.0000   1.0000
     1.0000   1.0000   1.0000   1.0000   1.0000   1.0000   1.0000   1.0000
     1.0000   1.0000   1.0000   1.0000   1.0000   1.0000   1.0000   1.0000
     1.0000   1.0000   1.0000   1.0000   1.0000   1.0000   1.0000   1.0000
     1.0000   1.0000   1.0000   1.0000   1.0000   1.0000   1.0000   1.0000
     1.0000   1.0000   1.0000   1.0000   1.0000   1.0000   1.0000   1.0000
     1.0000   1.0000   1.0000   1.0000   1.0000   1.0000   1.0000   1.0000
     1.0000   1.0000   1.0000   1.0000   1.0000   1.0000   1.0000   1.0000
     1.0000   1.0000   1.0000   1.0000   1.0000   1.0000   1.0000   1.0000
     1.0000   1.0000   1.0000   1.0000   1.0000   1.0000   1.0000   1.0000
     1.0000   1.0000   1.0000   1.0000   1.0000   1.0000   1.0000   1.0000
     1.0000   1.0000   1.0000   1.0000   1.0000   1.0000   1.0000   1.0000
     1.0000   1.0000   1.0000   1.0000   1.0000   1.0000   1.0000   1.0000
     1.0000   1.0000   1.0000   1.0000   1.0000   1.0000   1.0000   1.0000
     1.0000   1.0000   1.0000   1.0000   1.0000   1.0000   1.0000   1.0000
     1.0000   1.0000   1.0000   1.0000   1.0000   1.0000   1.0000   1.0000
     1.0000   1.0000   1.0000   1.0000   1.0000   1.0000   1.0000   1.0000
     1.0000   1.0000   1.0000   1.0000   1.0000   1.0000   1.0000   1.0000
     1.0000   1.0000   1.0000   1.0000   1.0000   1.0000   1.0000   1.0000
     1.0000   1.0000   1.0000   1.0000   1.0000   1.0000   1.0000   1.0000
     1.0000   1.0000   1.0000   1.0000   1.0000   1.0000   1.0000   1.0000
     1.0000   1.0000   1.0000   1.0000   1.0000   1.0000   1.0000   1.0000
     1.0000   1.0000   1.0000   1.0000   1.0000   1.0000   1.0000   1.0000
     1.0000   1.0000   1.0000   1.0000   1.0000   1.0000   1.0000   1.0000
     1.0000   1.0000   1.0000   1.0000   1.0000   1.0000   1.0000   1.0000
     1.0000   1.0000   1.0000   1.0000   1.0000   1.0000   1.0000   1.0000
     1.0000   1.0000   1.0000   1.0000   1.0000   1.0000   1.0000   1.0000
     1.0000   1.0000   1.0000   1.0000   1.0000   1.0000   1.0000   1.0000
     1.0000   1.0000   1.0000   1.0000   1.0000   1.0000   1.0000   1.0000
     1.0000   1.0000   1.0000   1.0000   1.0000   1.0000   1.0000   1.0000
     1.0000   1.0000   1.0000   1.0000   1.0000   1.0000   1.0000   1.0000
     1.0000   1.0000   1.0000   1.0000   1.0000   1.0000   1.0000   1.0000
     1.0000   1.0000   1.0000   1.0000   1.0000   1.0000   1.0000   1.0000
     1.0000   1.0000   1.0000   1.0000   1.0000   1.0000   1.0000   1.0000
     1.0000   1.0000   1.0000   1.0000   1.0000   1.0000   1.0000   1.0000
     1.0000   1.0000   1.0000   1.0000   1.0000   1.0000   1.0000   1.0000
     1.0000   1.0000   1.0000   1.0000   1.0000   1.0000   1.0000   1.0000
     1.0000   1.0000   1.0000   1.0000   1.0000   1.0000   1.0000   1.0000
     1.0000   1.0000   1.0000   1.0000   1.0000   1.0000   1.0000   1.0000
     1.0000   1.0000   1.0000   1.0000   1.0000   1.0000   1.0000   1.0000
     1.0000   1.0000   1.0000   1.0000   1.0000   1.0000   1.0000   1.0000
     1.0000   1.0000   1.0000   1.0000   1.0000   1.0000   1.0000   1.0000
     1.0000   1.0000   1.0000   1.0000   1.0000   1.0000   1.0000   1.0000
     1.0000   1.0000   1.0000   1.0000   1.0000   1.0000   1.0000   1.0000
     1.0000   1.0000   1.0000   1.0000   1.0000   1.0000   1.0000   1.0000
     1.0000   1.0000   1.0000   1.0000   1.0000   1.0000   1.0000   1.0000
     1.0000   1.0000   1.0000   1.0000   1.0000   1.0000   1.0000   1.0000
     1.0000   1.0000   1.0000   1.0000   1.0000   1.0000   1.0000   1.0000
     1.0000   1.0000   1.0000   1.0000   1.0000   1.0000   1.0000   1.0000
     1.0000   1.0000   1.0000   1.0000   1.0000   1.0000   1.0000   1.0000
     1.0000   1.0000   1.0000   1.0000   1.0000   1.0000   1.0000   1.0000
     1.0000   1.0000   1.0000   1.0000   1.0000   1.0000   1.0000   1.0000
     1.0000   1.0000   1.0000   1.0000   1.0000   1.0000   1.0000   1.0000
     1.0000   1.0000   1.0000   1.0000   1.0000   1.0000   1.0000   1.0000
     1.0000   1.0000   1.0000   1.0000   1.0000   1.0000   1.0000   1.0000
     1.0000   1.0000   1.0000   1.0000   1.0000   1.0000   1.0000   1.0000
     1.0000   1.0000   1.0000   1.0000   1.0000   1.0000   1.0000   1.0000
     1.0000   1.0000   1.0000   1.0000   1.0000   1.0000   1.0000   1.0000
     1.0000   1.0000   1.0000   1.0000   1.0000   1.0000   1.0000   1.0000
     1.0000   1.0000   1.0000   1.0000   1.0000   1.0000   1.0000   1.0000
     1.0000   1.0000   1.0000   1.0000   1.0000   1.0000   1.0000   1.0000
     1.0000   1.0000   1.0000   1.0000   1.0000   1.0000   1.0000   1.0000
     1.0000   1.0000   1.0000   1.0000   1.0000   1.0000   1.0000   1.0000
     1.0000   1.0000   1.0000   1.0000   1.0000   1.0000   1.0000   1.0000
     1.0000   1.0000   1.0000   1.0000   1.0000   1.0000   1.0000   1.0000
     1.0000   1.0000   1.0000   1.0000   1.0000   1.0000   1.0000   1.0000
     1.0000   1.0000   1.0000   1.0000   1.0000   1.0000   1.0000   1.0000
     1.0000   1.0000   1.0000   1.0000   1.0000   1.0000   1.0000   1.0000
     1.0000   1.0000   1.0000   1.0000   1.0000   1.0000   1.0000   1.0000
     1.0000   1.0000   1.0000   1.0000   1.0000   1.0000   1.0000   1.0000
     1.0000   1.0000   1.0000   1.0000   1.0000   1.0000   1.0000   1.0000
     1.0000   1.0000   1.0000   1.0000   1.0000   1.0000   1.0000   1.0000
     1.0000   1.0000   1.0000   1.0000   1.0001   1.0001   1.0001   1.0001
     1.0001   1.0002   1.0002   1.0003   1.0003   1.0004   1.0004   1.0005
     1.0005   1.0006   1.0009   1.0016   1.0017   1.0030   1.0030   1.0036
     1.0045   1.0045   1.0065   1.0067   1.0067   1.0075   1.0085   1.0096
     1.0096   1.0106   1.0124   1.0125   1.0127   1.0178   1.0219   1.0219
     1.0344   1.0405   1.0406   1.0451   1.0529   1.0529   1.0707   1.0707
     1.0696   1.0685   1.0685   1.0667   1.0636   1.0635   0.7471   0.7468
     0.7409   0.5974   0.5974   0.4906   0.4426   0.4424   0.4279   0.4271
     0.4267   0.3803   0.3795   0.3691   0.3396   0.3261   0.3248   0.0061
     0.0000   0.0000   0.0000   0.0000   0.0000   0.0000   0.0000   0.0000
     0.0000   0.0000   0.0000   0.0000   0.0000   0.0000   0.0000   0.0000
     0.0000   0.0000   0.0000   0.0000   0.0000   0.0000   0.0000   0.0000
     0.0000   0.0000   0.0000   0.0000   0.0000   0.0000   0.0000   0.0000
     0.0000   0.0000   0.0000   0.0000   0.0000   0.0000   0.0000   0.0000
     0.0000   0.0000   0.0000   0.0000   0.0000   0.0000   0.0000   0.0000
     0.0000   0.0000   0.0000   0.0000   0.0000   0.0000   0.0000   0.0000
     0.0000   0.0000   0.0000   0.0000   0.0000   0.0000   0.0000   0.0000
     0.0000   0.0000   0.0000   0.0000   0.0000   0.0000   0.0000   0.0000
     0.0000   0.0000   0.0000   0.0000   0.0000   0.0000   0.0000   0.0000
     0.0000   0.0000   0.0000   0.0000   0.0000   0.0000   0.0000   0.0000
     0.0000   0.0000   0.0000   0.0000   0.0000   0.0000   0.0000   0.0000
     0.0000   0.0000   0.0000   0.0000   0.0000   0.0000   0.0000   0.0000
     0.0000   0.0000   0.0000   0.0000   0.0000   0.0000   0.0000   0.0000
     0.0000   0.0000   0.0000   0.0000   0.0000   0.0000   0.0000   0.0000
     0.0000   0.0000   0.0000   0.0000   0.0000   0.0000   0.0000   0.0000
     0.0000   0.0000   0.0000   0.0000   0.0000   0.0000   0.0000   0.0000
     0.0000   0.0000   0.0000   0.0000   0.0000   0.0000   0.0000   0.0000

          k = 0.0000-0.5774 0.0000 (319994 PWs)   bands (ev):

   -59.6888 -59.6845 -59.6833 -59.6480 -59.6467 -59.6463 -59.6269 -59.6253
   -59.6236 -59.6212 -59.6203 -59.6197 -59.6153 -59.6149 -59.6140 -59.6026
   -35.8280 -35.8260 -35.8218 -35.8072 -35.7976 -35.7906 -35.7889 -35.7811
   -35.7707 -35.7658 -35.7643 -35.7572 -35.7395 -35.7335 -35.7197 -35.7143
   -35.7138 -35.7120 -35.7032 -35.6998 -35.6992 -35.6911 -35.6840 -35.6805
   -35.6778 -35.6746 -35.6737 -35.6693 -35.6689 -35.6662 -35.6634 -35.6605
   -35.6595 -35.6532 -35.6515 -35.6502 -35.6490 -35.6439 -35.6435 -35.6401
   -35.6386 -35.6374 -35.6338 -35.6338 -35.6331 -35.6315 -35.6250 -35.6247
   -23.7064 -23.6736 -23.4520 -23.4453 -23.0497 -23.0456 -23.0313 -23.0239
   -22.9365 -22.6644 -22.6509 -22.6228 -22.4658 -22.4645 -22.4544 -22.4458
   -22.4090 -22.4054 -22.1454 -22.1398 -22.1233 -22.1197 -22.0252 -22.0146
   -22.0008 -21.9916 -21.9716 -21.9584 -21.9443 -21.9310 -21.8728 -21.8556
   -21.8485 -21.8464 -21.8122 -21.7649 -21.7627 -21.7454 -21.7381 -21.7142
   -21.7118 -21.6932 -21.6865 -21.6726 -21.6663 -21.6227 -21.6045 -21.5378
   -21.5258 -21.5212 -21.5070 -21.4747 -21.4745 -21.4680 -21.4608 -21.4509
   -21.4425 -21.4346 -21.4231 -21.4179 -21.4071 -21.3938 -21.3839 -21.3676
   -21.3624 -21.3406 -21.3213 -21.3034 -21.1976 -21.1952 -21.1838 -21.1807
   -21.0593 -21.0584 -21.0549 -21.0520 -21.0285 -21.0259 -21.0108 -20.9882
   -20.9875 -20.9455 -20.9435 -20.9211 -20.9201 -20.9196 -20.9189 -20.9188
   -20.9187 -20.6569 -20.6564 -20.1678 -20.1675 -20.1576 -20.1575 -19.5351
   -19.5341 -19.5080 -19.5076 -19.3997 -19.3978 -19.3424 -19.3421 -19.1317
   -19.1296 -19.0290 -18.9231 -18.9229 -18.8093 -18.8088 -18.5631 -18.5629
   -17.7450 -17.7208 -17.4698 -17.4601 -17.0687 -17.0607 -17.0526 -17.0487
   -16.9442 -16.8856 -16.8229 -16.8004 -16.7679 -16.7377 -16.7219 -16.6953
   -16.6892 -16.6874 -16.5880 -16.5853 -16.5261 -16.5243 -16.5197 -16.5160
   -16.4800 -16.4428 -16.3960 -16.3840 -16.3752 -16.3566 -16.3078 -16.3065
   -13.2675 -12.9390 -12.9371 -12.8602 -12.8596 -12.6503 -12.6482 -12.5700
   -12.5697 -12.4151 -12.4150 -12.1391 -12.1388 -12.0980 -12.0973 -11.6357
   -11.6354 -11.3301 -11.3299 -11.1698 -11.1694 -11.1258 -11.0315 -11.0120
   -10.9067 -10.8994 -10.8917 -10.8774 -10.8674 -10.8469 -10.8153 -10.7664
   -10.7663 -10.7600 -10.7516 -10.6911 -10.6800 -10.6732 -10.6550 -10.6471
   -10.6411 -10.4763 -10.4747 -10.3854 -10.3746 -10.3564 -10.3481 -10.3387
   -10.3242 -10.3079 -10.3012 -10.2301 -10.2297 -10.2071 -10.1974 -10.1830
   -10.1191 -10.1158 -10.1032 -10.0897 -10.0453 -10.0353 -10.0349 -10.0284
    -9.9065  -9.8283  -9.8278  -9.7873  -9.6710  -9.6638  -9.6528  -9.6446
    -9.6251  -9.6248  -9.5923  -9.5891  -9.5762  -9.5653  -9.4689  -9.4583
    -9.3694  -9.3688  -9.3020  -9.2896  -9.2839  -9.2759  -9.2697  -9.2582
    -9.2034  -9.2004  -9.1814  -9.1812  -9.1611  -9.1578  -9.1473  -9.1425
    -9.1197  -9.1110  -9.1052  -9.0907  -9.0665  -9.0483  -9.0452  -9.0309
    -9.0217  -9.0160  -9.0089  -8.9766  -8.9743  -8.9726  -8.9672  -8.9460
    -8.9321  -8.9255  -8.8847  -8.8230  -8.8221  -8.8206  -8.7875  -8.7531
    -8.7360  -8.7354  -8.7272  -8.7229  -8.7157  -8.7104  -8.6927  -8.6912
    -8.6775  -8.6760  -8.6684  -8.6233  -8.6162  -8.5981  -8.5873  -8.5792
    -8.5492  -8.5468  -8.5404  -8.5386  -8.4757  -8.4692  -8.4571  -8.4473
    -8.4433  -8.4272  -8.4089  -8.3937  -8.3892  -8.3332  -8.3191  -8.3072
    -8.3003  -8.2946  -8.2919  -8.2894  -8.2823  -8.2109  -8.2072  -8.1944
    -8.1633  -8.1540  -8.1466  -8.1463  -8.1421  -8.1309  -8.0800  -8.0786
    -8.0730  -8.0542  -8.0457  -7.9893  -7.9787  -7.9704  -7.9587  -7.9463
    -7.9373  -7.9353  -7.8990  -7.8907  -7.8457  -7.8329  -7.8209  -7.8178
    -7.8160  -7.8123  -7.8112  -7.8106  -7.7646  -7.7525  -7.7453  -7.7319
    -7.7188  -7.6995  -7.6948  -7.6800  -7.6703  -7.6594  -7.6474  -7.6423
    -7.6333  -7.6321  -7.6160  -7.6135  -7.6062  -7.5989  -7.5975  -7.5808
    -7.5704  -7.5677  -7.5642  -7.5494  -7.5489  -7.4909  -7.4551  -7.4360
    -7.4300  -7.4273  -7.3981  -7.3381  -7.3329  -7.3235  -7.3212  -7.2984
    -7.2913  -7.2877  -7.2612  -7.2542  -7.2525  -7.2105  -7.2027  -7.1991
    -7.1934  -7.1719  -7.1638  -7.1580  -7.0989  -7.0891  -7.0837  -7.0799
    -7.0754  -7.0573  -7.0144  -7.0121  -7.0041  -6.9656  -6.9579  -6.9522
    -6.9370  -6.9327  -6.9276  -6.9225  -6.8932  -6.8883  -6.8676  -6.8635
    -6.8598  -6.8579  -6.8531  -6.8447  -6.8373  -6.8303  -6.8148  -6.8072
    -6.8014  -6.7914  -6.7793  -6.7760  -6.7688  -6.7669  -6.7650  -6.7548
    -6.7443  -6.7367  -6.7166  -6.7095  -6.7044  -6.6935  -6.6847  -6.6813
    -6.6584  -6.6455  -6.6202  -6.5828  -6.5740  -6.5394  -6.5231  -6.4961
    -6.4905  -6.4443  -6.4342  -6.4242  -6.4171  -6.4110  -6.4044  -6.4018
    -6.3952  -6.3737  -6.3725  -6.3604  -6.3542  -6.3462  -6.3332  -6.3326
    -6.3317  -6.2926  -6.2493  -6.2434  -6.2381  -6.2359  -6.2297  -6.2061
    -6.2012  -6.1960  -6.1908  -6.1868  -6.1824  -6.1768  -6.1679  -6.1630
    -6.1568  -6.1555  -6.1456  -6.1399  -6.1336  -6.1259  -6.1221  -6.1118
    -6.0969  -6.0845  -6.0828  -6.0735  -6.0726  -6.0627  -6.0599  -6.0564
    -6.0523  -6.0488  -6.0466  -6.0385  -6.0310  -6.0230  -6.0195  -5.9560
    -5.9433  -5.9291  -5.9233  -5.8904  -5.8854  -5.8770  -5.8399  -5.8371
    -5.8346  -5.8200  -5.8164  -5.8074  -5.7980  -5.7955  -5.7714  -5.7627
    -5.7532  -5.7388  -5.7221  -5.7005  -5.6909  -5.6819  -5.6553  -5.6479
    -5.6367  -5.6241  -5.6208  -5.6095  -5.5941  -5.5856  -5.5707  -5.5609
    -5.5493  -5.5241  -5.4941  -5.4913  -5.4670  -5.4376  -5.4324  -5.4195
    -5.4047  -5.3808  -5.3636  -5.3550  -5.3487  -5.3431  -5.3252  -5.3119
    -5.3086  -5.2885  -5.2827  -5.2728  -5.2641  -5.2606  -5.2432  -5.2335
    -5.2134  -5.2070  -5.1500  -5.1467  -5.1336  -5.1217  -5.1150  -5.1059
    -5.0841  -5.0753  -5.0575  -5.0516  -5.0310  -5.0086  -4.9805  -4.9574
    -4.9318  -4.8597  -4.8363  -4.8299  -4.7894  -4.7864  -4.7813  -4.7764
    -4.7719  -4.7625  -4.7451  -4.7410  -4.6989  -4.6755  -4.6678  -4.6673
    -4.6260  -4.6246  -4.6157  -4.6052  -4.5743  -4.5712  -4.4809  -4.4620
    -4.4427  -4.4305  -4.2748  -4.2590  -4.1270  -4.1213  -3.9433  -3.9417
    -3.8240  -3.7891  -3.7803  -3.7798  -3.6327  -3.6314  -3.6282  -3.6245
    -3.6167  -2.6966  -2.6899  -2.2941  -2.2621  -2.2544  -2.2382  -2.2306
    -2.2183  -2.2098  -2.1793  -2.1773  -2.1674  -2.1019  -2.0854  -2.0064
    -2.0019  -1.9715  -1.9506  -1.9446  -1.9420  -1.9219  -1.9164  -1.8979
    -1.8740  -1.8634  -1.8531  -1.8230  -1.8202  -1.8102  -1.7904  -1.7766
    -1.7341  -1.6710  -1.6627  -1.5721  -1.5692  -1.5609  -1.5550  -1.4301
    -1.3919  -1.2681  -1.2629  -1.1774  -1.0422  -1.0324  -1.0168  -0.9880
    -0.9589  -0.9225  -0.9018  -0.8686  -0.8676  -0.8514  -0.8499  -0.5370
    -0.5368  -0.4936  -0.4812  -0.4463  -0.4396  -0.4348  -0.4294  -0.4270
    -0.4182  -0.3784  -0.3668  -0.3525  -0.3020  -0.2982  -0.2968  -0.2965
    -0.2950  -0.2830  -0.0615  -0.0487   0.0198   0.0701   0.0949   0.3073
     0.3129   0.3345   0.3400   0.6009   0.6171   0.6909   0.7092   0.7860
     0.7872   0.7926   0.7933   0.8048   0.8058   0.8256   0.8474   0.9065
     0.9260   0.9322   1.0107   1.0266   1.1095   1.1327   1.1783   1.1785
     1.1870   1.1878   1.1963   1.1980   1.2000   1.2282   1.2354   1.2844
     1.2940   1.4052   1.4295   1.4476   1.5130   1.5841   1.6306   1.6447
     1.6491   1.7184   1.7777   1.8397   1.8610   1.9112   1.9271   2.0468
     2.0639   2.0739   2.0893   2.0968   2.1425   2.1481   2.2310   2.2482

     occupation numbers 
     1.0000   1.0000   1.0000   1.0000   1.0000   1.0000   1.0000   1.0000
     1.0000   1.0000   1.0000   1.0000   1.0000   1.0000   1.0000   1.0000
     1.0000   1.0000   1.0000   1.0000   1.0000   1.0000   1.0000   1.0000
     1.0000   1.0000   1.0000   1.0000   1.0000   1.0000   1.0000   1.0000
     1.0000   1.0000   1.0000   1.0000   1.0000   1.0000   1.0000   1.0000
     1.0000   1.0000   1.0000   1.0000   1.0000   1.0000   1.0000   1.0000
     1.0000   1.0000   1.0000   1.0000   1.0000   1.0000   1.0000   1.0000
     1.0000   1.0000   1.0000   1.0000   1.0000   1.0000   1.0000   1.0000
     1.0000   1.0000   1.0000   1.0000   1.0000   1.0000   1.0000   1.0000
     1.0000   1.0000   1.0000   1.0000   1.0000   1.0000   1.0000   1.0000
     1.0000   1.0000   1.0000   1.0000   1.0000   1.0000   1.0000   1.0000
     1.0000   1.0000   1.0000   1.0000   1.0000   1.0000   1.0000   1.0000
     1.0000   1.0000   1.0000   1.0000   1.0000   1.0000   1.0000   1.0000
     1.0000   1.0000   1.0000   1.0000   1.0000   1.0000   1.0000   1.0000
     1.0000   1.0000   1.0000   1.0000   1.0000   1.0000   1.0000   1.0000
     1.0000   1.0000   1.0000   1.0000   1.0000   1.0000   1.0000   1.0000
     1.0000   1.0000   1.0000   1.0000   1.0000   1.0000   1.0000   1.0000
     1.0000   1.0000   1.0000   1.0000   1.0000   1.0000   1.0000   1.0000
     1.0000   1.0000   1.0000   1.0000   1.0000   1.0000   1.0000   1.0000
     1.0000   1.0000   1.0000   1.0000   1.0000   1.0000   1.0000   1.0000
     1.0000   1.0000   1.0000   1.0000   1.0000   1.0000   1.0000   1.0000
     1.0000   1.0000   1.0000   1.0000   1.0000   1.0000   1.0000   1.0000
     1.0000   1.0000   1.0000   1.0000   1.0000   1.0000   1.0000   1.0000
     1.0000   1.0000   1.0000   1.0000   1.0000   1.0000   1.0000   1.0000
     1.0000   1.0000   1.0000   1.0000   1.0000   1.0000   1.0000   1.0000
     1.0000   1.0000   1.0000   1.0000   1.0000   1.0000   1.0000   1.0000
     1.0000   1.0000   1.0000   1.0000   1.0000   1.0000   1.0000   1.0000
     1.0000   1.0000   1.0000   1.0000   1.0000   1.0000   1.0000   1.0000
     1.0000   1.0000   1.0000   1.0000   1.0000   1.0000   1.0000   1.0000
     1.0000   1.0000   1.0000   1.0000   1.0000   1.0000   1.0000   1.0000
     1.0000   1.0000   1.0000   1.0000   1.0000   1.0000   1.0000   1.0000
     1.0000   1.0000   1.0000   1.0000   1.0000   1.0000   1.0000   1.0000
     1.0000   1.0000   1.0000   1.0000   1.0000   1.0000   1.0000   1.0000
     1.0000   1.0000   1.0000   1.0000   1.0000   1.0000   1.0000   1.0000
     1.0000   1.0000   1.0000   1.0000   1.0000   1.0000   1.0000   1.0000
     1.0000   1.0000   1.0000   1.0000   1.0000   1.0000   1.0000   1.0000
     1.0000   1.0000   1.0000   1.0000   1.0000   1.0000   1.0000   1.0000
     1.0000   1.0000   1.0000   1.0000   1.0000   1.0000   1.0000   1.0000
     1.0000   1.0000   1.0000   1.0000   1.0000   1.0000   1.0000   1.0000
     1.0000   1.0000   1.0000   1.0000   1.0000   1.0000   1.0000   1.0000
     1.0000   1.0000   1.0000   1.0000   1.0000   1.0000   1.0000   1.0000
     1.0000   1.0000   1.0000   1.0000   1.0000   1.0000   1.0000   1.0000
     1.0000   1.0000   1.0000   1.0000   1.0000   1.0000   1.0000   1.0000
     1.0000   1.0000   1.0000   1.0000   1.0000   1.0000   1.0000   1.0000
     1.0000   1.0000   1.0000   1.0000   1.0000   1.0000   1.0000   1.0000
     1.0000   1.0000   1.0000   1.0000   1.0000   1.0000   1.0000   1.0000
     1.0000   1.0000   1.0000   1.0000   1.0000   1.0000   1.0000   1.0000
     1.0000   1.0000   1.0000   1.0000   1.0000   1.0000   1.0000   1.0000
     1.0000   1.0000   1.0000   1.0000   1.0000   1.0000   1.0000   1.0000
     1.0000   1.0000   1.0000   1.0000   1.0000   1.0000   1.0000   1.0000
     1.0000   1.0000   1.0000   1.0000   1.0000   1.0000   1.0000   1.0000
     1.0000   1.0000   1.0000   1.0000   1.0000   1.0000   1.0000   1.0000
     1.0000   1.0000   1.0000   1.0000   1.0000   1.0000   1.0000   1.0000
     1.0000   1.0000   1.0000   1.0000   1.0000   1.0000   1.0000   1.0000
     1.0000   1.0000   1.0000   1.0000   1.0000   1.0000   1.0000   1.0000
     1.0000   1.0000   1.0000   1.0000   1.0000   1.0000   1.0000   1.0000
     1.0000   1.0000   1.0000   1.0000   1.0000   1.0000   1.0000   1.0000
     1.0000   1.0000   1.0000   1.0000   1.0000   1.0000   1.0000   1.0000
     1.0000   1.0000   1.0000   1.0000   1.0000   1.0000   1.0000   1.0000
     1.0000   1.0000   1.0000   1.0000   1.0000   1.0000   1.0000   1.0000
     1.0000   1.0000   1.0000   1.0000   1.0000   1.0000   1.0000   1.0000
     1.0000   1.0000   1.0000   1.0000   1.0000   1.0000   1.0000   1.0000
     1.0000   1.0000   1.0000   1.0000   1.0000   1.0000   1.0000   1.0000
     1.0000   1.0000   1.0000   1.0000   1.0000   1.0000   1.0000   1.0000
     1.0000   1.0000   1.0000   1.0000   1.0000   1.0000   1.0000   1.0000
     1.0000   1.0000   1.0000   1.0000   1.0000   1.0000   1.0000   1.0000
     1.0000   1.0000   1.0000   1.0000   1.0000   1.0000   1.0000   1.0000
     1.0000   1.0000   1.0000   1.0000   1.0000   1.0000   1.0000   1.0000
     1.0000   1.0000   1.0000   1.0000   1.0000   1.0000   1.0000   1.0000
     1.0000   1.0000   1.0000   1.0000   1.0000   1.0000   1.0000   1.0000
     1.0000   1.0000   1.0000   1.0000   1.0000   1.0000   1.0000   1.0000
     1.0000   1.0000   1.0000   1.0000   1.0000   1.0000   1.0000   1.0000
     1.0000   1.0000   1.0000   1.0000   1.0000   1.0000   1.0000   1.0000
     1.0000   1.0000   1.0000   1.0000   1.0000   1.0000   1.0000   1.0001
     1.0001   1.0001   1.0002   1.0002   1.0003   1.0003   1.0004   1.0005
     1.0005   1.0008   1.0009   1.0010   1.0012   1.0012   1.0017   1.0019
     1.0026   1.0029   1.0065   1.0068   1.0081   1.0094   1.0103   1.0115
     1.0148   1.0163   1.0198   1.0210   1.0259   1.0318   1.0403   1.0480
     1.0568   1.0785   1.0823   1.0829   1.0803   1.0796   1.0783   1.0768
     1.0751   1.0712   1.0615   1.0588   1.0191   0.9876   0.9758   0.9750
     0.8993   0.8962   0.8774   0.8539   0.7791   0.7713   0.5260   0.4748
     0.4241   0.3931   0.1095   0.0931   0.0186   0.0172   0.0009   0.0009
     0.0001   0.0000   0.0000   0.0000   0.0000   0.0000   0.0000   0.0000
     0.0000   0.0000   0.0000   0.0000   0.0000   0.0000   0.0000   0.0000
     0.0000   0.0000   0.0000   0.0000   0.0000   0.0000   0.0000   0.0000
     0.0000   0.0000   0.0000   0.0000   0.0000   0.0000   0.0000   0.0000
     0.0000   0.0000   0.0000   0.0000   0.0000   0.0000   0.0000   0.0000
     0.0000   0.0000   0.0000   0.0000   0.0000   0.0000   0.0000   0.0000
     0.0000   0.0000   0.0000   0.0000   0.0000   0.0000   0.0000   0.0000
     0.0000   0.0000   0.0000   0.0000   0.0000   0.0000   0.0000   0.0000
     0.0000   0.0000   0.0000   0.0000   0.0000   0.0000   0.0000   0.0000
     0.0000   0.0000   0.0000   0.0000   0.0000   0.0000   0.0000   0.0000
     0.0000   0.0000   0.0000   0.0000   0.0000   0.0000   0.0000   0.0000
     0.0000   0.0000   0.0000   0.0000   0.0000   0.0000   0.0000   0.0000
     0.0000   0.0000   0.0000   0.0000   0.0000   0.0000   0.0000   0.0000
     0.0000   0.0000   0.0000   0.0000   0.0000   0.0000   0.0000   0.0000
     0.0000   0.0000   0.0000   0.0000   0.0000   0.0000   0.0000   0.0000
     0.0000   0.0000   0.0000   0.0000   0.0000   0.0000   0.0000   0.0000
     0.0000   0.0000   0.0000   0.0000   0.0000   0.0000   0.0000   0.0000
     0.0000   0.0000   0.0000   0.0000   0.0000   0.0000   0.0000   0.0000

          k =-0.5000-0.2887 0.0000 (319994 PWs)   bands (ev):

   -59.6888 -59.6845 -59.6833 -59.6479 -59.6468 -59.6462 -59.6269 -59.6253
   -59.6236 -59.6214 -59.6203 -59.6196 -59.6152 -59.6150 -59.6140 -59.6026
   -35.8276 -35.8265 -35.8218 -35.8070 -35.7980 -35.7904 -35.7889 -35.7812
   -35.7705 -35.7658 -35.7643 -35.7571 -35.7396 -35.7336 -35.7197 -35.7142
   -35.7134 -35.7121 -35.7036 -35.7001 -35.6988 -35.6907 -35.6841 -35.6806
   -35.6778 -35.6747 -35.6737 -35.6697 -35.6685 -35.6660 -35.6634 -35.6605
   -35.6594 -35.6534 -35.6514 -35.6501 -35.6492 -35.6440 -35.6436 -35.6402
   -35.6383 -35.6373 -35.6338 -35.6338 -35.6334 -35.6314 -35.6250 -35.6248
   -23.7064 -23.6736 -23.4520 -23.4453 -23.0497 -23.0456 -23.0314 -23.0238
   -22.9365 -22.6645 -22.6508 -22.6228 -22.4659 -22.4645 -22.4542 -22.4459
   -22.4092 -22.4052 -22.1454 -22.1398 -22.1233 -22.1197 -22.0252 -22.0147
   -22.0009 -21.9915 -21.9716 -21.9585 -21.9443 -21.9309 -21.8728 -21.8556
   -21.8485 -21.8464 -21.8123 -21.7649 -21.7627 -21.7453 -21.7381 -21.7142
   -21.7118 -21.6931 -21.6866 -21.6726 -21.6664 -21.6227 -21.6045 -21.5378
   -21.5258 -21.5212 -21.5070 -21.4747 -21.4745 -21.4680 -21.4608 -21.4510
   -21.4425 -21.4345 -21.4232 -21.4177 -21.4072 -21.3937 -21.3840 -21.3676
   -21.3625 -21.3406 -21.3212 -21.3035 -21.1976 -21.1953 -21.1837 -21.1808
   -21.0593 -21.0584 -21.0549 -21.0520 -21.0285 -21.0259 -21.0108 -20.9882
   -20.9875 -20.9455 -20.9435 -20.9211 -20.9201 -20.9196 -20.9189 -20.9188
   -20.9187 -20.6569 -20.6564 -20.1678 -20.1675 -20.1576 -20.1575 -19.5351
   -19.5341 -19.5080 -19.5076 -19.3997 -19.3978 -19.3424 -19.3421 -19.1317
   -19.1296 -19.0290 -18.9231 -18.9229 -18.8093 -18.8088 -18.5631 -18.5629
   -17.7450 -17.7207 -17.4699 -17.4601 -17.0686 -17.0609 -17.0527 -17.0484
   -16.9442 -16.8855 -16.8228 -16.8006 -16.7680 -16.7378 -16.7219 -16.6952
   -16.6892 -16.6871 -16.5880 -16.5854 -16.5262 -16.5243 -16.5196 -16.5160
   -16.4801 -16.4427 -16.3958 -16.3836 -16.3755 -16.3568 -16.3078 -16.3065
   -13.2675 -12.9390 -12.9371 -12.8602 -12.8596 -12.6503 -12.6482 -12.5700
   -12.5697 -12.4151 -12.4150 -12.1391 -12.1388 -12.0980 -12.0973 -11.6357
   -11.6354 -11.3301 -11.3299 -11.1698 -11.1693 -11.1259 -11.0315 -11.0120
   -10.9066 -10.8994 -10.8917 -10.8773 -10.8675 -10.8468 -10.8153 -10.7664
   -10.7663 -10.7600 -10.7516 -10.6911 -10.6800 -10.6733 -10.6550 -10.6472
   -10.6411 -10.4763 -10.4747 -10.3854 -10.3745 -10.3564 -10.3481 -10.3387
   -10.3242 -10.3079 -10.3012 -10.2301 -10.2297 -10.2071 -10.1973 -10.1830
   -10.1191 -10.1158 -10.1032 -10.0897 -10.0453 -10.0353 -10.0349 -10.0284
    -9.9065  -9.8283  -9.8278  -9.7872  -9.6710  -9.6638  -9.6528  -9.6446
    -9.6251  -9.6248  -9.5923  -9.5891  -9.5761  -9.5653  -9.4689  -9.4583
    -9.3694  -9.3688  -9.3019  -9.2896  -9.2840  -9.2759  -9.2698  -9.2581
    -9.2034  -9.2004  -9.1814  -9.1812  -9.1611  -9.1579  -9.1473  -9.1425
    -9.1197  -9.1110  -9.1053  -9.0906  -9.0663  -9.0483  -9.0452  -9.0311
    -9.0217  -9.0158  -9.0089  -8.9764  -8.9744  -8.9725  -8.9674  -8.9461
    -8.9321  -8.9254  -8.8847  -8.8230  -8.8221  -8.8207  -8.7875  -8.7530
    -8.7361  -8.7353  -8.7272  -8.7229  -8.7156  -8.7105  -8.6926  -8.6912
    -8.6775  -8.6760  -8.6684  -8.6233  -8.6161  -8.5982  -8.5875  -8.5793
    -8.5491  -8.5464  -8.5404  -8.5385  -8.4758  -8.4691  -8.4571  -8.4472
    -8.4433  -8.4272  -8.4090  -8.3936  -8.3891  -8.3330  -8.3195  -8.3067
    -8.3004  -8.2947  -8.2921  -8.2895  -8.2823  -8.2108  -8.2072  -8.1944
    -8.1638  -8.1539  -8.1466  -8.1463  -8.1420  -8.1311  -8.0801  -8.0786
    -8.0730  -8.0542  -8.0457  -7.9892  -7.9786  -7.9704  -7.9585  -7.9463
    -7.9373  -7.9353  -7.8990  -7.8907  -7.8457  -7.8329  -7.8210  -7.8178
    -7.8160  -7.8123  -7.8111  -7.8106  -7.7646  -7.7525  -7.7453  -7.7319
    -7.7192  -7.6995  -7.6948  -7.6798  -7.6702  -7.6594  -7.6474  -7.6421
    -7.6331  -7.6320  -7.6160  -7.6132  -7.6062  -7.5989  -7.5976  -7.5809
    -7.5704  -7.5677  -7.5643  -7.5494  -7.5489  -7.4910  -7.4552  -7.4360
    -7.4300  -7.4273  -7.3981  -7.3381  -7.3329  -7.3235  -7.3214  -7.2987
    -7.2914  -7.2877  -7.2610  -7.2542  -7.2525  -7.2107  -7.2027  -7.1994
    -7.1935  -7.1720  -7.1639  -7.1580  -7.0989  -7.0891  -7.0837  -7.0800
    -7.0753  -7.0574  -7.0147  -7.0121  -7.0042  -6.9658  -6.9578  -6.9520
    -6.9371  -6.9327  -6.9277  -6.9224  -6.8935  -6.8879  -6.8673  -6.8635
    -6.8598  -6.8580  -6.8529  -6.8444  -6.8369  -6.8300  -6.8149  -6.8073
    -6.8013  -6.7913  -6.7795  -6.7760  -6.7690  -6.7663  -6.7651  -6.7550
    -6.7443  -6.7368  -6.7165  -6.7095  -6.7042  -6.6934  -6.6847  -6.6814
    -6.6584  -6.6455  -6.6202  -6.5828  -6.5741  -6.5393  -6.5231  -6.4960
    -6.4904  -6.4442  -6.4343  -6.4242  -6.4171  -6.4111  -6.4044  -6.4020
    -6.3950  -6.3735  -6.3725  -6.3605  -6.3542  -6.3462  -6.3331  -6.3325
    -6.3316  -6.2926  -6.2493  -6.2434  -6.2382  -6.2359  -6.2298  -6.2062
    -6.2012  -6.1961  -6.1909  -6.1868  -6.1824  -6.1769  -6.1682  -6.1630
    -6.1567  -6.1556  -6.1456  -6.1398  -6.1335  -6.1260  -6.1222  -6.1113
    -6.0970  -6.0845  -6.0826  -6.0739  -6.0726  -6.0624  -6.0599  -6.0566
    -6.0523  -6.0488  -6.0466  -6.0384  -6.0308  -6.0230  -6.0194  -5.9560
    -5.9433  -5.9291  -5.9233  -5.8904  -5.8854  -5.8770  -5.8398  -5.8370
    -5.8348  -5.8197  -5.8164  -5.8074  -5.7981  -5.7956  -5.7714  -5.7625
    -5.7532  -5.7389  -5.7221  -5.7004  -5.6907  -5.6818  -5.6552  -5.6480
    -5.6366  -5.6243  -5.6207  -5.6095  -5.5940  -5.5857  -5.5709  -5.5611
    -5.5492  -5.5240  -5.4941  -5.4912  -5.4672  -5.4376  -5.4324  -5.4198
    -5.4048  -5.3807  -5.3635  -5.3550  -5.3486  -5.3430  -5.3252  -5.3120
    -5.3086  -5.2884  -5.2826  -5.2729  -5.2641  -5.2606  -5.2431  -5.2332
    -5.2133  -5.2072  -5.1501  -5.1467  -5.1335  -5.1218  -5.1150  -5.1059
    -5.0841  -5.0752  -5.0574  -5.0516  -5.0308  -5.0086  -4.9806  -4.9569
    -4.9324  -4.8596  -4.8364  -4.8297  -4.7895  -4.7864  -4.7814  -4.7764
    -4.7719  -4.7624  -4.7451  -4.7412  -4.6993  -4.6758  -4.6678  -4.6673
    -4.6261  -4.6247  -4.6156  -4.6050  -4.5743  -4.5712  -4.4810  -4.4634
    -4.4411  -4.4303  -4.2747  -4.2587  -4.1271  -4.1213  -3.9432  -3.9418
    -3.8242  -3.7891  -3.7803  -3.7798  -3.6327  -3.6314  -3.6282  -3.6245
    -3.6167  -2.6967  -2.6899  -2.2944  -2.2617  -2.2543  -2.2387  -2.2308
    -2.2180  -2.2099  -2.1789  -2.1772  -2.1673  -2.1022  -2.0857  -2.0064
    -2.0020  -1.9712  -1.9513  -1.9445  -1.9421  -1.9220  -1.9161  -1.8988
    -1.8739  -1.8627  -1.8520  -1.8235  -1.8208  -1.8095  -1.7914  -1.7759
    -1.7334  -1.6716  -1.6620  -1.5723  -1.5688  -1.5610  -1.5550  -1.4302
    -1.3921  -1.2682  -1.2633  -1.1780  -1.0419  -1.0327  -1.0171  -0.9862
    -0.9598  -0.9220  -0.9031  -0.8685  -0.8674  -0.8514  -0.8499  -0.5371
    -0.5368  -0.4931  -0.4809  -0.4459  -0.4397  -0.4349  -0.4290  -0.4269
    -0.4180  -0.3784  -0.3670  -0.3522  -0.3023  -0.2982  -0.2969  -0.2965
    -0.2950  -0.2835  -0.0616  -0.0487   0.0198   0.0700   0.0949   0.3073
     0.3130   0.3345   0.3400   0.6009   0.6171   0.6908   0.7092   0.7860
     0.7872   0.7926   0.7933   0.8048   0.8058   0.8257   0.8474   0.9065
     0.9260   0.9322   1.0108   1.0264   1.1094   1.1329   1.1783   1.1785
     1.1870   1.1878   1.1963   1.1980   1.1999   1.2282   1.2356   1.2842
     1.2939   1.4052   1.4294   1.4479   1.5129   1.5841   1.6306   1.6448
     1.6491   1.7184   1.7774   1.8396   1.8611   1.9114   1.9270   2.0466
     2.0642   2.0739   2.0892   2.0968   2.1422   2.1479   2.2308   2.2483

     occupation numbers 
     1.0000   1.0000   1.0000   1.0000   1.0000   1.0000   1.0000   1.0000
     1.0000   1.0000   1.0000   1.0000   1.0000   1.0000   1.0000   1.0000
     1.0000   1.0000   1.0000   1.0000   1.0000   1.0000   1.0000   1.0000
     1.0000   1.0000   1.0000   1.0000   1.0000   1.0000   1.0000   1.0000
     1.0000   1.0000   1.0000   1.0000   1.0000   1.0000   1.0000   1.0000
     1.0000   1.0000   1.0000   1.0000   1.0000   1.0000   1.0000   1.0000
     1.0000   1.0000   1.0000   1.0000   1.0000   1.0000   1.0000   1.0000
     1.0000   1.0000   1.0000   1.0000   1.0000   1.0000   1.0000   1.0000
     1.0000   1.0000   1.0000   1.0000   1.0000   1.0000   1.0000   1.0000
     1.0000   1.0000   1.0000   1.0000   1.0000   1.0000   1.0000   1.0000
     1.0000   1.0000   1.0000   1.0000   1.0000   1.0000   1.0000   1.0000
     1.0000   1.0000   1.0000   1.0000   1.0000   1.0000   1.0000   1.0000
     1.0000   1.0000   1.0000   1.0000   1.0000   1.0000   1.0000   1.0000
     1.0000   1.0000   1.0000   1.0000   1.0000   1.0000   1.0000   1.0000
     1.0000   1.0000   1.0000   1.0000   1.0000   1.0000   1.0000   1.0000
     1.0000   1.0000   1.0000   1.0000   1.0000   1.0000   1.0000   1.0000
     1.0000   1.0000   1.0000   1.0000   1.0000   1.0000   1.0000   1.0000
     1.0000   1.0000   1.0000   1.0000   1.0000   1.0000   1.0000   1.0000
     1.0000   1.0000   1.0000   1.0000   1.0000   1.0000   1.0000   1.0000
     1.0000   1.0000   1.0000   1.0000   1.0000   1.0000   1.0000   1.0000
     1.0000   1.0000   1.0000   1.0000   1.0000   1.0000   1.0000   1.0000
     1.0000   1.0000   1.0000   1.0000   1.0000   1.0000   1.0000   1.0000
     1.0000   1.0000   1.0000   1.0000   1.0000   1.0000   1.0000   1.0000
     1.0000   1.0000   1.0000   1.0000   1.0000   1.0000   1.0000   1.0000
     1.0000   1.0000   1.0000   1.0000   1.0000   1.0000   1.0000   1.0000
     1.0000   1.0000   1.0000   1.0000   1.0000   1.0000   1.0000   1.0000
     1.0000   1.0000   1.0000   1.0000   1.0000   1.0000   1.0000   1.0000
     1.0000   1.0000   1.0000   1.0000   1.0000   1.0000   1.0000   1.0000
     1.0000   1.0000   1.0000   1.0000   1.0000   1.0000   1.0000   1.0000
     1.0000   1.0000   1.0000   1.0000   1.0000   1.0000   1.0000   1.0000
     1.0000   1.0000   1.0000   1.0000   1.0000   1.0000   1.0000   1.0000
     1.0000   1.0000   1.0000   1.0000   1.0000   1.0000   1.0000   1.0000
     1.0000   1.0000   1.0000   1.0000   1.0000   1.0000   1.0000   1.0000
     1.0000   1.0000   1.0000   1.0000   1.0000   1.0000   1.0000   1.0000
     1.0000   1.0000   1.0000   1.0000   1.0000   1.0000   1.0000   1.0000
     1.0000   1.0000   1.0000   1.0000   1.0000   1.0000   1.0000   1.0000
     1.0000   1.0000   1.0000   1.0000   1.0000   1.0000   1.0000   1.0000
     1.0000   1.0000   1.0000   1.0000   1.0000   1.0000   1.0000   1.0000
     1.0000   1.0000   1.0000   1.0000   1.0000   1.0000   1.0000   1.0000
     1.0000   1.0000   1.0000   1.0000   1.0000   1.0000   1.0000   1.0000
     1.0000   1.0000   1.0000   1.0000   1.0000   1.0000   1.0000   1.0000
     1.0000   1.0000   1.0000   1.0000   1.0000   1.0000   1.0000   1.0000
     1.0000   1.0000   1.0000   1.0000   1.0000   1.0000   1.0000   1.0000
     1.0000   1.0000   1.0000   1.0000   1.0000   1.0000   1.0000   1.0000
     1.0000   1.0000   1.0000   1.0000   1.0000   1.0000   1.0000   1.0000
     1.0000   1.0000   1.0000   1.0000   1.0000   1.0000   1.0000   1.0000
     1.0000   1.0000   1.0000   1.0000   1.0000   1.0000   1.0000   1.0000
     1.0000   1.0000   1.0000   1.0000   1.0000   1.0000   1.0000   1.0000
     1.0000   1.0000   1.0000   1.0000   1.0000   1.0000   1.0000   1.0000
     1.0000   1.0000   1.0000   1.0000   1.0000   1.0000   1.0000   1.0000
     1.0000   1.0000   1.0000   1.0000   1.0000   1.0000   1.0000   1.0000
     1.0000   1.0000   1.0000   1.0000   1.0000   1.0000   1.0000   1.0000
     1.0000   1.0000   1.0000   1.0000   1.0000   1.0000   1.0000   1.0000
     1.0000   1.0000   1.0000   1.0000   1.0000   1.0000   1.0000   1.0000
     1.0000   1.0000   1.0000   1.0000   1.0000   1.0000   1.0000   1.0000
     1.0000   1.0000   1.0000   1.0000   1.0000   1.0000   1.0000   1.0000
     1.0000   1.0000   1.0000   1.0000   1.0000   1.0000   1.0000   1.0000
     1.0000   1.0000   1.0000   1.0000   1.0000   1.0000   1.0000   1.0000
     1.0000   1.0000   1.0000   1.0000   1.0000   1.0000   1.0000   1.0000
     1.0000   1.0000   1.0000   1.0000   1.0000   1.0000   1.0000   1.0000
     1.0000   1.0000   1.0000   1.0000   1.0000   1.0000   1.0000   1.0000
     1.0000   1.0000   1.0000   1.0000   1.0000   1.0000   1.0000   1.0000
     1.0000   1.0000   1.0000   1.0000   1.0000   1.0000   1.0000   1.0000
     1.0000   1.0000   1.0000   1.0000   1.0000   1.0000   1.0000   1.0000
     1.0000   1.0000   1.0000   1.0000   1.0000   1.0000   1.0000   1.0000
     1.0000   1.0000   1.0000   1.0000   1.0000   1.0000   1.0000   1.0000
     1.0000   1.0000   1.0000   1.0000   1.0000   1.0000   1.0000   1.0000
     1.0000   1.0000   1.0000   1.0000   1.0000   1.0000   1.0000   1.0000
     1.0000   1.0000   1.0000   1.0000   1.0000   1.0000   1.0000   1.0000
     1.0000   1.0000   1.0000   1.0000   1.0000   1.0000   1.0000   1.0000
     1.0000   1.0000   1.0000   1.0000   1.0000   1.0000   1.0000   1.0000
     1.0000   1.0000   1.0000   1.0000   1.0000   1.0000   1.0000   1.0000
     1.0000   1.0000   1.0000   1.0000   1.0000   1.0000   1.0000   1.0000
     1.0000   1.0000   1.0000   1.0000   1.0000   1.0000   1.0000   1.0001
     1.0001   1.0001   1.0002   1.0002   1.0003   1.0003   1.0004   1.0005
     1.0005   1.0008   1.0009   1.0010   1.0012   1.0012   1.0017   1.0019
     1.0026   1.0029   1.0065   1.0068   1.0081   1.0094   1.0103   1.0115
     1.0148   1.0163   1.0198   1.0210   1.0259   1.0318   1.0403   1.0481
     1.0566   1.0785   1.0823   1.0829   1.0803   1.0796   1.0783   1.0768
     1.0752   1.0712   1.0615   1.0589   1.0195   0.9881   0.9758   0.9750
     0.8994   0.8964   0.8771   0.8534   0.7791   0.7713   0.5262   0.4785
     0.4200   0.3928   0.1095   0.0928   0.0186   0.0172   0.0009   0.0009
     0.0001   0.0000   0.0000   0.0000   0.0000   0.0000   0.0000   0.0000
     0.0000   0.0000   0.0000   0.0000   0.0000   0.0000   0.0000   0.0000
     0.0000   0.0000   0.0000   0.0000   0.0000   0.0000   0.0000   0.0000
     0.0000   0.0000   0.0000   0.0000   0.0000   0.0000   0.0000   0.0000
     0.0000   0.0000   0.0000   0.0000   0.0000   0.0000   0.0000   0.0000
     0.0000   0.0000   0.0000   0.0000   0.0000   0.0000   0.0000   0.0000
     0.0000   0.0000   0.0000   0.0000   0.0000   0.0000   0.0000   0.0000
     0.0000   0.0000   0.0000   0.0000   0.0000   0.0000   0.0000   0.0000
     0.0000   0.0000   0.0000   0.0000   0.0000   0.0000   0.0000   0.0000
     0.0000   0.0000   0.0000   0.0000   0.0000   0.0000   0.0000   0.0000
     0.0000   0.0000   0.0000   0.0000   0.0000   0.0000   0.0000   0.0000
     0.0000   0.0000   0.0000   0.0000   0.0000   0.0000   0.0000   0.0000
     0.0000   0.0000   0.0000   0.0000   0.0000   0.0000   0.0000   0.0000
     0.0000   0.0000   0.0000   0.0000   0.0000   0.0000   0.0000   0.0000
     0.0000   0.0000   0.0000   0.0000   0.0000   0.0000   0.0000   0.0000
     0.0000   0.0000   0.0000   0.0000   0.0000   0.0000   0.0000   0.0000
     0.0000   0.0000   0.0000   0.0000   0.0000   0.0000   0.0000   0.0000
     0.0000   0.0000   0.0000   0.0000   0.0000   0.0000   0.0000   0.0000

          k =-0.5000-0.8660 0.0000 (319994 PWs)   bands (ev):

   -59.6888 -59.6845 -59.6833 -59.6479 -59.6468 -59.6462 -59.6270 -59.6251
   -59.6239 -59.6213 -59.6201 -59.6198 -59.6154 -59.6149 -59.6140 -59.6026
   -35.8276 -35.8264 -35.8218 -35.8070 -35.7979 -35.7906 -35.7889 -35.7811
   -35.7704 -35.7660 -35.7643 -35.7570 -35.7396 -35.7336 -35.7197 -35.7142
   -35.7135 -35.7121 -35.7036 -35.7001 -35.6989 -35.6907 -35.6841 -35.6806
   -35.6780 -35.6746 -35.6736 -35.6698 -35.6686 -35.6659 -35.6636 -35.6605
   -35.6593 -35.6533 -35.6514 -35.6503 -35.6491 -35.6438 -35.6435 -35.6401
   -35.6384 -35.6374 -35.6338 -35.6337 -35.6333 -35.6316 -35.6250 -35.6247
   -23.7064 -23.6736 -23.4520 -23.4453 -23.0497 -23.0456 -23.0314 -23.0238
   -22.9365 -22.6645 -22.6508 -22.6228 -22.4660 -22.4645 -22.4542 -22.4459
   -22.4091 -22.4052 -22.1454 -22.1398 -22.1233 -22.1197 -22.0252 -22.0145
   -22.0009 -21.9915 -21.9716 -21.9585 -21.9443 -21.9309 -21.8728 -21.8555
   -21.8485 -21.8464 -21.8123 -21.7649 -21.7627 -21.7453 -21.7381 -21.7142
   -21.7118 -21.6932 -21.6866 -21.6725 -21.6664 -21.6227 -21.6045 -21.5378
   -21.5258 -21.5211 -21.5071 -21.4747 -21.4745 -21.4680 -21.4608 -21.4509
   -21.4425 -21.4346 -21.4231 -21.4178 -21.4072 -21.3936 -21.3840 -21.3676
   -21.3624 -21.3406 -21.3213 -21.3034 -21.1976 -21.1952 -21.1838 -21.1808
   -21.0593 -21.0584 -21.0549 -21.0520 -21.0285 -21.0259 -21.0108 -20.9882
   -20.9875 -20.9455 -20.9435 -20.9211 -20.9201 -20.9196 -20.9189 -20.9188
   -20.9187 -20.6569 -20.6564 -20.1678 -20.1675 -20.1576 -20.1575 -19.5351
   -19.5341 -19.5080 -19.5076 -19.3997 -19.3978 -19.3424 -19.3421 -19.1317
   -19.1296 -19.0290 -18.9231 -18.9229 -18.8093 -18.8088 -18.5631 -18.5629
   -17.7450 -17.7208 -17.4699 -17.4601 -17.0689 -17.0606 -17.0524 -17.0487
   -16.9442 -16.8856 -16.8228 -16.8006 -16.7679 -16.7378 -16.7219 -16.6952
   -16.6892 -16.6872 -16.5882 -16.5852 -16.5260 -16.5243 -16.5198 -16.5161
   -16.4800 -16.4428 -16.3958 -16.3837 -16.3754 -16.3567 -16.3079 -16.3064
   -13.2675 -12.9390 -12.9371 -12.8602 -12.8596 -12.6503 -12.6482 -12.5700
   -12.5697 -12.4151 -12.4150 -12.1391 -12.1388 -12.0980 -12.0973 -11.6357
   -11.6354 -11.3301 -11.3299 -11.1698 -11.1694 -11.1258 -11.0315 -11.0120
   -10.9066 -10.8994 -10.8917 -10.8773 -10.8675 -10.8468 -10.8153 -10.7664
   -10.7663 -10.7600 -10.7516 -10.6911 -10.6800 -10.6732 -10.6550 -10.6472
   -10.6411 -10.4763 -10.4747 -10.3854 -10.3745 -10.3564 -10.3481 -10.3387
   -10.3242 -10.3080 -10.3012 -10.2301 -10.2297 -10.2071 -10.1974 -10.1830
   -10.1191 -10.1158 -10.1032 -10.0897 -10.0453 -10.0353 -10.0349 -10.0284
    -9.9065  -9.8283  -9.8279  -9.7872  -9.6710  -9.6638  -9.6528  -9.6446
    -9.6251  -9.6248  -9.5923  -9.5891  -9.5761  -9.5653  -9.4689  -9.4583
    -9.3694  -9.3688  -9.3019  -9.2896  -9.2840  -9.2760  -9.2697  -9.2581
    -9.2034  -9.2004  -9.1814  -9.1812  -9.1611  -9.1578  -9.1472  -9.1426
    -9.1197  -9.1109  -9.1053  -9.0907  -9.0664  -9.0483  -9.0452  -9.0309
    -9.0216  -9.0160  -9.0089  -8.9764  -8.9743  -8.9726  -8.9673  -8.9462
    -8.9321  -8.9254  -8.8848  -8.8230  -8.8221  -8.8207  -8.7874  -8.7530
    -8.7361  -8.7353  -8.7273  -8.7229  -8.7156  -8.7105  -8.6927  -8.6912
    -8.6775  -8.6759  -8.6685  -8.6233  -8.6162  -8.5981  -8.5877  -8.5792
    -8.5490  -8.5465  -8.5403  -8.5386  -8.4757  -8.4693  -8.4570  -8.4473
    -8.4432  -8.4271  -8.4090  -8.3936  -8.3891  -8.3332  -8.3195  -8.3069
    -8.3003  -8.2944  -8.2920  -8.2896  -8.2824  -8.2108  -8.2072  -8.1944
    -8.1638  -8.1539  -8.1466  -8.1463  -8.1420  -8.1311  -8.0801  -8.0785
    -8.0730  -8.0542  -8.0457  -7.9893  -7.9786  -7.9704  -7.9587  -7.9464
    -7.9372  -7.9351  -7.8989  -7.8908  -7.8456  -7.8328  -7.8209  -7.8178
    -7.8160  -7.8123  -7.8111  -7.8106  -7.7646  -7.7526  -7.7452  -7.7321
    -7.7190  -7.6995  -7.6948  -7.6798  -7.6701  -7.6594  -7.6475  -7.6420
    -7.6332  -7.6317  -7.6161  -7.6135  -7.6063  -7.5989  -7.5975  -7.5808
    -7.5705  -7.5678  -7.5643  -7.5494  -7.5489  -7.4909  -7.4552  -7.4360
    -7.4300  -7.4273  -7.3981  -7.3381  -7.3329  -7.3235  -7.3214  -7.2986
    -7.2914  -7.2878  -7.2612  -7.2542  -7.2524  -7.2107  -7.2028  -7.1993
    -7.1937  -7.1719  -7.1637  -7.1580  -7.0989  -7.0891  -7.0838  -7.0800
    -7.0754  -7.0573  -7.0146  -7.0121  -7.0042  -6.9658  -6.9578  -6.9520
    -6.9368  -6.9327  -6.9276  -6.9224  -6.8936  -6.8883  -6.8671  -6.8635
    -6.8598  -6.8578  -6.8530  -6.8445  -6.8370  -6.8302  -6.8150  -6.8071
    -6.8016  -6.7913  -6.7795  -6.7761  -6.7687  -6.7662  -6.7651  -6.7548
    -6.7443  -6.7367  -6.7166  -6.7094  -6.7044  -6.6933  -6.6847  -6.6813
    -6.6583  -6.6455  -6.6202  -6.5829  -6.5741  -6.5393  -6.5231  -6.4958
    -6.4903  -6.4442  -6.4343  -6.4246  -6.4171  -6.4112  -6.4045  -6.4018
    -6.3951  -6.3735  -6.3726  -6.3603  -6.3542  -6.3463  -6.3331  -6.3325
    -6.3315  -6.2926  -6.2493  -6.2433  -6.2382  -6.2359  -6.2298  -6.2063
    -6.2010  -6.1960  -6.1909  -6.1868  -6.1823  -6.1768  -6.1683  -6.1631
    -6.1567  -6.1557  -6.1457  -6.1398  -6.1335  -6.1260  -6.1222  -6.1114
    -6.0969  -6.0843  -6.0827  -6.0737  -6.0728  -6.0625  -6.0600  -6.0564
    -6.0523  -6.0488  -6.0466  -6.0384  -6.0309  -6.0230  -6.0195  -5.9560
    -5.9433  -5.9291  -5.9233  -5.8904  -5.8853  -5.8769  -5.8399  -5.8371
    -5.8348  -5.8198  -5.8164  -5.8074  -5.7981  -5.7956  -5.7716  -5.7626
    -5.7532  -5.7390  -5.7220  -5.7004  -5.6909  -5.6817  -5.6552  -5.6479
    -5.6367  -5.6243  -5.6207  -5.6095  -5.5938  -5.5858  -5.5709  -5.5610
    -5.5493  -5.5242  -5.4941  -5.4912  -5.4672  -5.4375  -5.4323  -5.4197
    -5.4048  -5.3808  -5.3637  -5.3552  -5.3486  -5.3430  -5.3252  -5.3119
    -5.3086  -5.2884  -5.2826  -5.2729  -5.2640  -5.2605  -5.2433  -5.2333
    -5.2134  -5.2072  -5.1500  -5.1468  -5.1335  -5.1218  -5.1148  -5.1059
    -5.0841  -5.0752  -5.0572  -5.0516  -5.0310  -5.0088  -4.9805  -4.9569
    -4.9322  -4.8597  -4.8363  -4.8297  -4.7894  -4.7864  -4.7813  -4.7764
    -4.7719  -4.7624  -4.7452  -4.7413  -4.6992  -4.6758  -4.6678  -4.6673
    -4.6263  -4.6244  -4.6157  -4.6049  -4.5743  -4.5712  -4.4809  -4.4633
    -4.4412  -4.4304  -4.2747  -4.2588  -4.1274  -4.1209  -3.9432  -3.9418
    -3.8242  -3.7891  -3.7803  -3.7798  -3.6327  -3.6314  -3.6282  -3.6245
    -3.6167  -2.6966  -2.6899  -2.2941  -2.2619  -2.2545  -2.2389  -2.2308
    -2.2180  -2.2097  -2.1796  -2.1767  -2.1672  -2.1023  -2.0854  -2.0064
    -2.0020  -1.9713  -1.9514  -1.9447  -1.9418  -1.9222  -1.9159  -1.8985
    -1.8736  -1.8633  -1.8521  -1.8232  -1.8211  -1.8096  -1.7911  -1.7760
    -1.7335  -1.6715  -1.6621  -1.5721  -1.5693  -1.5611  -1.5545  -1.4301
    -1.3922  -1.2681  -1.2633  -1.1780  -1.0415  -1.0328  -1.0170  -0.9866
    -0.9599  -0.9221  -0.9028  -0.8685  -0.8675  -0.8514  -0.8499  -0.5370
    -0.5368  -0.4934  -0.4804  -0.4460  -0.4395  -0.4350  -0.4294  -0.4270
    -0.4180  -0.3784  -0.3669  -0.3524  -0.3021  -0.2982  -0.2969  -0.2965
    -0.2950  -0.2835  -0.0616  -0.0487   0.0199   0.0700   0.0949   0.3073
     0.3129   0.3346   0.3400   0.6009   0.6171   0.6907   0.7091   0.7859
     0.7872   0.7926   0.7933   0.8048   0.8058   0.8257   0.8475   0.9066
     0.9261   0.9322   1.0107   1.0264   1.1095   1.1329   1.1783   1.1785
     1.1870   1.1878   1.1963   1.1980   1.1999   1.2281   1.2356   1.2844
     1.2937   1.4052   1.4293   1.4479   1.5132   1.5839   1.6306   1.6448
     1.6491   1.7184   1.7776   1.8395   1.8611   1.9111   1.9272   2.0465
     2.0642   2.0739   2.0892   2.0968   2.1424   2.1479   2.2309   2.2484

     occupation numbers 
     1.0000   1.0000   1.0000   1.0000   1.0000   1.0000   1.0000   1.0000
     1.0000   1.0000   1.0000   1.0000   1.0000   1.0000   1.0000   1.0000
     1.0000   1.0000   1.0000   1.0000   1.0000   1.0000   1.0000   1.0000
     1.0000   1.0000   1.0000   1.0000   1.0000   1.0000   1.0000   1.0000
     1.0000   1.0000   1.0000   1.0000   1.0000   1.0000   1.0000   1.0000
     1.0000   1.0000   1.0000   1.0000   1.0000   1.0000   1.0000   1.0000
     1.0000   1.0000   1.0000   1.0000   1.0000   1.0000   1.0000   1.0000
     1.0000   1.0000   1.0000   1.0000   1.0000   1.0000   1.0000   1.0000
     1.0000   1.0000   1.0000   1.0000   1.0000   1.0000   1.0000   1.0000
     1.0000   1.0000   1.0000   1.0000   1.0000   1.0000   1.0000   1.0000
     1.0000   1.0000   1.0000   1.0000   1.0000   1.0000   1.0000   1.0000
     1.0000   1.0000   1.0000   1.0000   1.0000   1.0000   1.0000   1.0000
     1.0000   1.0000   1.0000   1.0000   1.0000   1.0000   1.0000   1.0000
     1.0000   1.0000   1.0000   1.0000   1.0000   1.0000   1.0000   1.0000
     1.0000   1.0000   1.0000   1.0000   1.0000   1.0000   1.0000   1.0000
     1.0000   1.0000   1.0000   1.0000   1.0000   1.0000   1.0000   1.0000
     1.0000   1.0000   1.0000   1.0000   1.0000   1.0000   1.0000   1.0000
     1.0000   1.0000   1.0000   1.0000   1.0000   1.0000   1.0000   1.0000
     1.0000   1.0000   1.0000   1.0000   1.0000   1.0000   1.0000   1.0000
     1.0000   1.0000   1.0000   1.0000   1.0000   1.0000   1.0000   1.0000
     1.0000   1.0000   1.0000   1.0000   1.0000   1.0000   1.0000   1.0000
     1.0000   1.0000   1.0000   1.0000   1.0000   1.0000   1.0000   1.0000
     1.0000   1.0000   1.0000   1.0000   1.0000   1.0000   1.0000   1.0000
     1.0000   1.0000   1.0000   1.0000   1.0000   1.0000   1.0000   1.0000
     1.0000   1.0000   1.0000   1.0000   1.0000   1.0000   1.0000   1.0000
     1.0000   1.0000   1.0000   1.0000   1.0000   1.0000   1.0000   1.0000
     1.0000   1.0000   1.0000   1.0000   1.0000   1.0000   1.0000   1.0000
     1.0000   1.0000   1.0000   1.0000   1.0000   1.0000   1.0000   1.0000
     1.0000   1.0000   1.0000   1.0000   1.0000   1.0000   1.0000   1.0000
     1.0000   1.0000   1.0000   1.0000   1.0000   1.0000   1.0000   1.0000
     1.0000   1.0000   1.0000   1.0000   1.0000   1.0000   1.0000   1.0000
     1.0000   1.0000   1.0000   1.0000   1.0000   1.0000   1.0000   1.0000
     1.0000   1.0000   1.0000   1.0000   1.0000   1.0000   1.0000   1.0000
     1.0000   1.0000   1.0000   1.0000   1.0000   1.0000   1.0000   1.0000
     1.0000   1.0000   1.0000   1.0000   1.0000   1.0000   1.0000   1.0000
     1.0000   1.0000   1.0000   1.0000   1.0000   1.0000   1.0000   1.0000
     1.0000   1.0000   1.0000   1.0000   1.0000   1.0000   1.0000   1.0000
     1.0000   1.0000   1.0000   1.0000   1.0000   1.0000   1.0000   1.0000
     1.0000   1.0000   1.0000   1.0000   1.0000   1.0000   1.0000   1.0000
     1.0000   1.0000   1.0000   1.0000   1.0000   1.0000   1.0000   1.0000
     1.0000   1.0000   1.0000   1.0000   1.0000   1.0000   1.0000   1.0000
     1.0000   1.0000   1.0000   1.0000   1.0000   1.0000   1.0000   1.0000
     1.0000   1.0000   1.0000   1.0000   1.0000   1.0000   1.0000   1.0000
     1.0000   1.0000   1.0000   1.0000   1.0000   1.0000   1.0000   1.0000
     1.0000   1.0000   1.0000   1.0000   1.0000   1.0000   1.0000   1.0000
     1.0000   1.0000   1.0000   1.0000   1.0000   1.0000   1.0000   1.0000
     1.0000   1.0000   1.0000   1.0000   1.0000   1.0000   1.0000   1.0000
     1.0000   1.0000   1.0000   1.0000   1.0000   1.0000   1.0000   1.0000
     1.0000   1.0000   1.0000   1.0000   1.0000   1.0000   1.0000   1.0000
     1.0000   1.0000   1.0000   1.0000   1.0000   1.0000   1.0000   1.0000
     1.0000   1.0000   1.0000   1.0000   1.0000   1.0000   1.0000   1.0000
     1.0000   1.0000   1.0000   1.0000   1.0000   1.0000   1.0000   1.0000
     1.0000   1.0000   1.0000   1.0000   1.0000   1.0000   1.0000   1.0000
     1.0000   1.0000   1.0000   1.0000   1.0000   1.0000   1.0000   1.0000
     1.0000   1.0000   1.0000   1.0000   1.0000   1.0000   1.0000   1.0000
     1.0000   1.0000   1.0000   1.0000   1.0000   1.0000   1.0000   1.0000
     1.0000   1.0000   1.0000   1.0000   1.0000   1.0000   1.0000   1.0000
     1.0000   1.0000   1.0000   1.0000   1.0000   1.0000   1.0000   1.0000
     1.0000   1.0000   1.0000   1.0000   1.0000   1.0000   1.0000   1.0000
     1.0000   1.0000   1.0000   1.0000   1.0000   1.0000   1.0000   1.0000
     1.0000   1.0000   1.0000   1.0000   1.0000   1.0000   1.0000   1.0000
     1.0000   1.0000   1.0000   1.0000   1.0000   1.0000   1.0000   1.0000
     1.0000   1.0000   1.0000   1.0000   1.0000   1.0000   1.0000   1.0000
     1.0000   1.0000   1.0000   1.0000   1.0000   1.0000   1.0000   1.0000
     1.0000   1.0000   1.0000   1.0000   1.0000   1.0000   1.0000   1.0000
     1.0000   1.0000   1.0000   1.0000   1.0000   1.0000   1.0000   1.0000
     1.0000   1.0000   1.0000   1.0000   1.0000   1.0000   1.0000   1.0000
     1.0000   1.0000   1.0000   1.0000   1.0000   1.0000   1.0000   1.0000
     1.0000   1.0000   1.0000   1.0000   1.0000   1.0000   1.0000   1.0000
     1.0000   1.0000   1.0000   1.0000   1.0000   1.0000   1.0000   1.0000
     1.0000   1.0000   1.0000   1.0000   1.0000   1.0000   1.0000   1.0000
     1.0000   1.0000   1.0000   1.0000   1.0000   1.0000   1.0000   1.0000
     1.0000   1.0000   1.0000   1.0000   1.0000   1.0000   1.0000   1.0000
     1.0000   1.0000   1.0000   1.0000   1.0000   1.0000   1.0000   1.0001
     1.0001   1.0001   1.0002   1.0002   1.0003   1.0003   1.0004   1.0005
     1.0005   1.0008   1.0009   1.0010   1.0012   1.0012   1.0017   1.0019
     1.0026   1.0029   1.0065   1.0068   1.0081   1.0094   1.0103   1.0115
     1.0148   1.0164   1.0198   1.0211   1.0259   1.0318   1.0403   1.0481
     1.0567   1.0785   1.0823   1.0829   1.0803   1.0796   1.0783   1.0768
     1.0751   1.0712   1.0616   1.0590   1.0194   0.9882   0.9758   0.9750
     0.8999   0.8959   0.8774   0.8532   0.7791   0.7713   0.5259   0.4782
     0.4203   0.3930   0.1094   0.0929   0.0187   0.0171   0.0009   0.0009
     0.0001   0.0000   0.0000   0.0000   0.0000   0.0000   0.0000   0.0000
     0.0000   0.0000   0.0000   0.0000   0.0000   0.0000   0.0000   0.0000
     0.0000   0.0000   0.0000   0.0000   0.0000   0.0000   0.0000   0.0000
     0.0000   0.0000   0.0000   0.0000   0.0000   0.0000   0.0000   0.0000
     0.0000   0.0000   0.0000   0.0000   0.0000   0.0000   0.0000   0.0000
     0.0000   0.0000   0.0000   0.0000   0.0000   0.0000   0.0000   0.0000
     0.0000   0.0000   0.0000   0.0000   0.0000   0.0000   0.0000   0.0000
     0.0000   0.0000   0.0000   0.0000   0.0000   0.0000   0.0000   0.0000
     0.0000   0.0000   0.0000   0.0000   0.0000   0.0000   0.0000   0.0000
     0.0000   0.0000   0.0000   0.0000   0.0000   0.0000   0.0000   0.0000
     0.0000   0.0000   0.0000   0.0000   0.0000   0.0000   0.0000   0.0000
     0.0000   0.0000   0.0000   0.0000   0.0000   0.0000   0.0000   0.0000
     0.0000   0.0000   0.0000   0.0000   0.0000   0.0000   0.0000   0.0000
     0.0000   0.0000   0.0000   0.0000   0.0000   0.0000   0.0000   0.0000
     0.0000   0.0000   0.0000   0.0000   0.0000   0.0000   0.0000   0.0000
     0.0000   0.0000   0.0000   0.0000   0.0000   0.0000   0.0000   0.0000
     0.0000   0.0000   0.0000   0.0000   0.0000   0.0000   0.0000   0.0000
     0.0000   0.0000   0.0000   0.0000   0.0000   0.0000   0.0000   0.0000

 ------ SPIN DOWN ----------


          k = 0.0000 0.0000 0.0000 (320189 PWs)   bands (ev):

   -59.6888 -59.6845 -59.6833 -59.6479 -59.6467 -59.6463 -59.6273 -59.6240
   -59.6236 -59.6228 -59.6200 -59.6195 -59.6152 -59.6148 -59.6141 -59.6026
   -35.8327 -35.8321 -35.8318 -35.8026 -35.7917 -35.7876 -35.7874 -35.7805
   -35.7803 -35.7448 -35.7444 -35.7364 -35.7313 -35.7286 -35.7284 -35.7189
   -35.7185 -35.7164 -35.7143 -35.7066 -35.7023 -35.7020 -35.6998 -35.6988
   -35.6746 -35.6738 -35.6735 -35.6704 -35.6682 -35.6676 -35.6599 -35.6570
   -35.6557 -35.6555 -35.6513 -35.6511 -35.6449 -35.6446 -35.6443 -35.6384
   -35.6381 -35.6360 -35.6341 -35.6321 -35.6319 -35.6254 -35.6232 -35.6231
   -23.8135 -23.3735 -23.3618 -23.3618 -23.3163 -23.3162 -23.3018 -22.7563
   -22.7563 -22.7392 -22.4627 -22.4626 -22.4223 -22.4063 -22.4062 -22.3905
   -22.3845 -22.3539 -22.3537 -22.3517 -22.1752 -22.1752 -22.1665 -22.1625
   -22.1625 -22.1581 -21.9174 -21.9109 -21.8351 -21.8231 -21.8144 -21.8143
   -21.7920 -21.7906 -21.7906 -21.7474 -21.7473 -21.7352 -21.6931 -21.6930
   -21.6820 -21.6724 -21.6723 -21.6497 -21.6425 -21.6424 -21.5478 -21.5477
   -21.5350 -21.5276 -21.5275 -21.5122 -21.5057 -21.5056 -21.4407 -21.4404
   -21.4403 -21.3931 -21.3846 -21.3845 -21.3399 -21.3397 -21.3348 -21.3341
   -21.3340 -21.3317 -21.3317 -21.3306 -21.2788 -21.2764 -21.1962 -21.1962
   -21.1924 -21.1923 -21.1042 -21.1027 -21.1027 -21.1014 -21.1011 -21.1010
   -20.9843 -20.9840 -20.9840 -20.9784 -20.9777 -20.9777 -20.8877 -20.8877
   -20.2786 -20.2784 -20.2780 -20.2780 -20.2777 -20.2777 -19.8377 -19.8373
   -19.8373 -19.8353 -19.8353 -19.8352 -19.0027 -19.0027 -19.0021 -19.0011
   -19.0002 -19.0002 -18.8273 -18.8273 -18.8269 -18.8269 -18.8247 -18.8238
   -17.8812 -17.3729 -17.3646 -17.3642 -17.3374 -17.3370 -17.3163 -16.8765
   -16.8220 -16.7878 -16.7423 -16.7422 -16.7065 -16.7062 -16.6884 -16.6872
   -16.6869 -16.6586 -16.6577 -16.6574 -16.6340 -16.6337 -16.6247 -16.4241
   -16.4083 -16.3894 -16.3892 -16.3619 -16.3618 -16.3593 -16.3531 -16.3530
   -13.0752 -13.0751 -13.0751 -13.0735 -13.0735 -13.0730 -12.3056 -12.3051
   -12.3039 -12.3039 -12.3034 -12.3033 -11.7537 -11.7537 -11.7534 -11.7502
   -11.7501 -11.7501 -11.1029 -11.0624 -11.0594 -11.0593 -11.0336 -11.0335
   -11.0276 -10.8410 -10.8408 -10.8403 -10.8403 -10.8398 -10.8398 -10.7252
   -10.7203 -10.7202 -10.6996 -10.6977 -10.6977 -10.5935 -10.5931 -10.5931
   -10.5915 -10.5914 -10.5908 -10.5501 -10.5421 -10.5218 -10.5217 -10.5200
   -10.5159 -10.5158 -10.5028 -10.4913 -10.4906 -10.4905 -10.3158 -10.3158
   -10.1045 -10.1045 -10.0901 -10.0901 -10.0801 -10.0629 -10.0628 -10.0530
   -10.0516 -10.0515  -9.8033  -9.7054  -9.7044  -9.7043  -9.6813  -9.6810
    -9.6810  -9.6318  -9.5529  -9.5506  -9.4793  -9.4793  -9.3299  -9.3299
    -9.3224  -9.2760  -9.2629  -9.2628  -9.2432  -9.2018  -9.2017  -9.1914
    -9.1639  -9.1639  -9.1638  -9.1616  -9.1616  -9.1615  -9.1437  -9.1436
    -9.0657  -9.0549  -9.0548  -9.0486  -9.0439  -9.0438  -8.9778  -8.9723
    -8.9690  -8.9690  -8.9651  -8.9650  -8.9597  -8.9362  -8.9336  -8.9335
    -8.9293  -8.8368  -8.8367  -8.6643  -8.6643  -8.6564  -8.6561  -8.6548
    -8.6458  -8.6452  -8.6383  -8.6076  -8.6063  -8.6063  -8.6030  -8.6030
    -8.6010  -8.5926  -8.5789  -8.5788  -8.5580  -8.5578  -8.5458  -8.5054
    -8.5053  -8.5049  -8.5022  -8.5021  -8.5021  -8.4897  -8.3751  -8.3749
    -8.3693  -8.3456  -8.3443  -8.3442  -8.3405  -8.3357  -8.3354  -8.3146
    -8.3074  -8.3072  -8.2952  -8.2951  -8.2945  -8.2524  -8.2469  -8.2466
    -8.2010  -8.2010  -8.1974  -8.1973  -8.1972  -8.1958  -8.1645  -8.1567
    -8.1566  -8.1504  -8.0823  -8.0822  -8.0745  -8.0675  -8.0674  -8.0611
    -8.0316  -8.0225  -8.0192  -8.0191  -7.9878  -7.9877  -7.9223  -7.8841
    -7.8839  -7.8780  -7.8613  -7.8611  -7.8491  -7.8442  -7.8358  -7.8357
    -7.8085  -7.7996  -7.7993  -7.7630  -7.7629  -7.7601  -7.7482  -7.7436
    -7.7435  -7.7285  -7.7283  -7.7092  -7.4413  -7.4302  -7.4300  -7.4249
    -7.4247  -7.4170  -7.4002  -7.3876  -7.3875  -7.3745  -7.3519  -7.3518
    -7.3507  -7.3440  -7.3439  -7.3236  -7.3212  -7.3211  -7.2180  -7.2179
    -7.2022  -7.1895  -7.1887  -7.1887  -7.1414  -7.1299  -7.1298  -7.0871
    -7.0870  -7.0855  -7.0605  -7.0604  -7.0603  -7.0255  -7.0181  -7.0159
    -7.0158  -7.0141  -7.0127  -7.0126  -7.0048  -7.0012  -7.0010  -6.9567
    -6.9565  -6.9492  -6.9412  -6.9411  -6.9221  -6.9118  -6.9117  -6.9117
    -6.8711  -6.8710  -6.8604  -6.8577  -6.8575  -6.8413  -6.8237  -6.8232
    -6.8189  -6.8164  -6.8163  -6.8080  -6.8048  -6.8045  -6.7971  -6.7958
    -6.7924  -6.7748  -6.7744  -6.7744  -6.7654  -6.7653  -6.7566  -6.6901
    -6.6901  -6.6897  -6.6532  -6.6532  -6.6466  -6.6336  -6.6336  -6.6183
    -6.6007  -6.6007  -6.5591  -6.5590  -6.5564  -6.5342  -6.5341  -6.5196
    -6.5195  -6.5151  -6.4967  -6.4966  -6.4632  -6.4630  -6.4436  -6.4351
    -6.3927  -6.3769  -6.3768  -6.3665  -6.3618  -6.3617  -6.3485  -6.3481
    -6.3421  -6.3312  -6.3311  -6.3243  -6.1834  -6.1834  -6.1330  -6.1073
    -6.1072  -6.0995  -6.0879  -6.0879  -6.0870  -6.0735  -6.0675  -6.0674
    -6.0546  -6.0546  -6.0528  -6.0528  -6.0413  -6.0206  -6.0205  -6.0053
    -6.0053  -5.9939  -5.9757  -5.9753  -5.9565  -5.9380  -5.9375  -5.9330
    -5.9277  -5.9275  -5.9217  -5.9014  -5.9009  -5.9007  -5.8777  -5.7532
    -5.7531  -5.7410  -5.7285  -5.7283  -5.7204  -5.6827  -5.6555  -5.6554
    -5.6411  -5.6129  -5.6097  -5.6097  -5.5735  -5.5734  -5.5532  -5.5530
    -5.5344  -5.5342  -5.5272  -5.5216  -5.5213  -5.4918  -5.4597  -5.4596
    -5.4509  -5.4442  -5.4441  -5.4303  -5.4180  -5.4085  -5.4084  -5.3953
    -5.3950  -5.3619  -5.3619  -5.3465  -5.3343  -5.3300  -5.3298  -5.3127
    -5.3125  -5.3078  -5.2822  -5.2437  -5.2433  -5.2058  -5.2058  -5.1932
    -5.1765  -5.1765  -5.1505  -5.1485  -5.1484  -5.1397  -5.1303  -5.1202
    -5.1201  -5.1122  -5.0990  -5.0988  -5.0972  -5.0673  -5.0478  -5.0477
    -4.9998  -4.9801  -4.9797  -4.9658  -4.9431  -4.9430  -4.7615  -4.7615
    -4.7592  -4.7571  -4.7571  -4.7537  -4.7484  -4.7483  -4.5618  -4.5617
    -4.5595  -4.5068  -4.5068  -4.4679  -4.4498  -4.4498  -4.4442  -4.4438
    -4.4437  -4.4253  -4.4250  -4.4207  -4.4083  -4.4025  -4.4019  -4.0516
    -3.7320  -3.7315  -3.7315  -3.7233  -3.7233  -3.7225  -3.5826  -3.5826
    -3.5686  -2.3073  -2.3066  -2.3060  -2.2752  -2.2746  -2.2704  -2.2404
    -2.2402  -2.2182  -2.0673  -2.0671  -2.0575  -2.0442  -2.0439  -2.0049
    -1.9578  -1.9533  -1.9496  -1.9485  -1.9294  -1.9294  -1.8759  -1.8754
    -1.8729  -1.8297  -1.8238  -1.7469  -1.7466  -1.7036  -1.6999  -1.6996
    -1.6941  -1.6936  -1.6657  -1.6654  -1.6642  -1.6468  -1.6463  -1.4740
    -1.4738  -1.3524  -1.3422  -1.2121  -1.2111  -1.2044  -1.2035  -1.0473
    -0.8362  -0.8351  -0.8343  -0.8319  -0.8278  -0.8274  -0.8046  -0.8045
    -0.7999  -0.4581  -0.4566  -0.4565  -0.4548  -0.4548  -0.4540  -0.3669
    -0.3292  -0.3140  -0.3133  -0.2765  -0.2688  -0.2687  -0.2516  -0.2515
    -0.0840   0.0853   0.0853   0.1176   0.1204   0.1225   0.1225   0.1318
     0.1319   0.2005   0.2008   0.3076   0.3103   0.3104   0.3452   0.3452
     0.3453   0.5531   0.6136   0.6154   0.6154   0.6174   0.6174   0.6175
     0.7117   0.8332   0.8337   0.9758   1.1176   1.3280   1.3283   1.3781
     1.3982   1.4184   1.4185   1.4392   1.4980   1.4981   1.5144   1.5472
     1.5816   1.5818   1.6328   1.6328   1.6957   1.7289   1.7292   1.8451
     1.8638   1.8639   1.8707   1.8726   1.8727   1.8840   1.9093   1.9094
     2.0974   2.1635   2.2320   2.2352   2.2352   2.2530   2.2548   2.3348

     occupation numbers 
     1.0000   1.0000   1.0000   1.0000   1.0000   1.0000   1.0000   1.0000
     1.0000   1.0000   1.0000   1.0000   1.0000   1.0000   1.0000   1.0000
     1.0000   1.0000   1.0000   1.0000   1.0000   1.0000   1.0000   1.0000
     1.0000   1.0000   1.0000   1.0000   1.0000   1.0000   1.0000   1.0000
     1.0000   1.0000   1.0000   1.0000   1.0000   1.0000   1.0000   1.0000
     1.0000   1.0000   1.0000   1.0000   1.0000   1.0000   1.0000   1.0000
     1.0000   1.0000   1.0000   1.0000   1.0000   1.0000   1.0000   1.0000
     1.0000   1.0000   1.0000   1.0000   1.0000   1.0000   1.0000   1.0000
     1.0000   1.0000   1.0000   1.0000   1.0000   1.0000   1.0000   1.0000
     1.0000   1.0000   1.0000   1.0000   1.0000   1.0000   1.0000   1.0000
     1.0000   1.0000   1.0000   1.0000   1.0000   1.0000   1.0000   1.0000
     1.0000   1.0000   1.0000   1.0000   1.0000   1.0000   1.0000   1.0000
     1.0000   1.0000   1.0000   1.0000   1.0000   1.0000   1.0000   1.0000
     1.0000   1.0000   1.0000   1.0000   1.0000   1.0000   1.0000   1.0000
     1.0000   1.0000   1.0000   1.0000   1.0000   1.0000   1.0000   1.0000
     1.0000   1.0000   1.0000   1.0000   1.0000   1.0000   1.0000   1.0000
     1.0000   1.0000   1.0000   1.0000   1.0000   1.0000   1.0000   1.0000
     1.0000   1.0000   1.0000   1.0000   1.0000   1.0000   1.0000   1.0000
     1.0000   1.0000   1.0000   1.0000   1.0000   1.0000   1.0000   1.0000
     1.0000   1.0000   1.0000   1.0000   1.0000   1.0000   1.0000   1.0000
     1.0000   1.0000   1.0000   1.0000   1.0000   1.0000   1.0000   1.0000
     1.0000   1.0000   1.0000   1.0000   1.0000   1.0000   1.0000   1.0000
     1.0000   1.0000   1.0000   1.0000   1.0000   1.0000   1.0000   1.0000
     1.0000   1.0000   1.0000   1.0000   1.0000   1.0000   1.0000   1.0000
     1.0000   1.0000   1.0000   1.0000   1.0000   1.0000   1.0000   1.0000
     1.0000   1.0000   1.0000   1.0000   1.0000   1.0000   1.0000   1.0000
     1.0000   1.0000   1.0000   1.0000   1.0000   1.0000   1.0000   1.0000
     1.0000   1.0000   1.0000   1.0000   1.0000   1.0000   1.0000   1.0000
     1.0000   1.0000   1.0000   1.0000   1.0000   1.0000   1.0000   1.0000
     1.0000   1.0000   1.0000   1.0000   1.0000   1.0000   1.0000   1.0000
     1.0000   1.0000   1.0000   1.0000   1.0000   1.0000   1.0000   1.0000
     1.0000   1.0000   1.0000   1.0000   1.0000   1.0000   1.0000   1.0000
     1.0000   1.0000   1.0000   1.0000   1.0000   1.0000   1.0000   1.0000
     1.0000   1.0000   1.0000   1.0000   1.0000   1.0000   1.0000   1.0000
     1.0000   1.0000   1.0000   1.0000   1.0000   1.0000   1.0000   1.0000
     1.0000   1.0000   1.0000   1.0000   1.0000   1.0000   1.0000   1.0000
     1.0000   1.0000   1.0000   1.0000   1.0000   1.0000   1.0000   1.0000
     1.0000   1.0000   1.0000   1.0000   1.0000   1.0000   1.0000   1.0000
     1.0000   1.0000   1.0000   1.0000   1.0000   1.0000   1.0000   1.0000
     1.0000   1.0000   1.0000   1.0000   1.0000   1.0000   1.0000   1.0000
     1.0000   1.0000   1.0000   1.0000   1.0000   1.0000   1.0000   1.0000
     1.0000   1.0000   1.0000   1.0000   1.0000   1.0000   1.0000   1.0000
     1.0000   1.0000   1.0000   1.0000   1.0000   1.0000   1.0000   1.0000
     1.0000   1.0000   1.0000   1.0000   1.0000   1.0000   1.0000   1.0000
     1.0000   1.0000   1.0000   1.0000   1.0000   1.0000   1.0000   1.0000
     1.0000   1.0000   1.0000   1.0000   1.0000   1.0000   1.0000   1.0000
     1.0000   1.0000   1.0000   1.0000   1.0000   1.0000   1.0000   1.0000
     1.0000   1.0000   1.0000   1.0000   1.0000   1.0000   1.0000   1.0000
     1.0000   1.0000   1.0000   1.0000   1.0000   1.0000   1.0000   1.0000
     1.0000   1.0000   1.0000   1.0000   1.0000   1.0000   1.0000   1.0000
     1.0000   1.0000   1.0000   1.0000   1.0000   1.0000   1.0000   1.0000
     1.0000   1.0000   1.0000   1.0000   1.0000   1.0000   1.0000   1.0000
     1.0000   1.0000   1.0000   1.0000   1.0000   1.0000   1.0000   1.0000
     1.0000   1.0000   1.0000   1.0000   1.0000   1.0000   1.0000   1.0000
     1.0000   1.0000   1.0000   1.0000   1.0000   1.0000   1.0000   1.0000
     1.0000   1.0000   1.0000   1.0000   1.0000   1.0000   1.0000   1.0000
     1.0000   1.0000   1.0000   1.0000   1.0000   1.0000   1.0000   1.0000
     1.0000   1.0000   1.0000   1.0000   1.0000   1.0000   1.0000   1.0000
     1.0000   1.0000   1.0000   1.0000   1.0000   1.0000   1.0000   1.0000
     1.0000   1.0000   1.0000   1.0000   1.0000   1.0000   1.0000   1.0000
     1.0000   1.0000   1.0000   1.0000   1.0000   1.0000   1.0000   1.0000
     1.0000   1.0000   1.0000   1.0000   1.0000   1.0000   1.0000   1.0000
     1.0000   1.0000   1.0000   1.0000   1.0000   1.0000   1.0000   1.0000
     1.0000   1.0000   1.0000   1.0000   1.0000   1.0000   1.0000   1.0000
     1.0000   1.0000   1.0000   1.0000   1.0000   1.0000   1.0000   1.0000
     1.0000   1.0000   1.0000   1.0000   1.0000   1.0000   1.0000   1.0000
     1.0000   1.0000   1.0000   1.0000   1.0000   1.0000   1.0000   1.0000
     1.0000   1.0000   1.0000   1.0000   1.0000   1.0000   1.0000   1.0000
     1.0000   1.0000   1.0000   1.0000   1.0000   1.0000   1.0000   1.0000
     1.0000   1.0000   1.0000   1.0000   1.0000   1.0000   1.0000   1.0000
     1.0000   1.0000   1.0000   1.0000   1.0000   1.0000   1.0000   1.0000
     1.0000   1.0000   1.0000   1.0000   1.0000   1.0000   1.0000   1.0000
     1.0000   1.0000   1.0000   1.0000   1.0000   1.0000   1.0000   1.0000
     1.0000   1.0000   1.0000   1.0000   1.0001   1.0001   1.0001   1.0001
     1.0001   1.0002   1.0002   1.0003   1.0003   1.0004   1.0004   1.0005
     1.0005   1.0006   1.0009   1.0016   1.0017   1.0030   1.0030   1.0036
     1.0045   1.0045   1.0065   1.0067   1.0067   1.0075   1.0085   1.0096
     1.0096   1.0106   1.0124   1.0125   1.0127   1.0178   1.0219   1.0219
     1.0344   1.0405   1.0406   1.0451   1.0529   1.0529   1.0707   1.0707
     1.0696   1.0685   1.0685   1.0667   1.0636   1.0635   0.7470   0.7468
     0.7408   0.5974   0.5974   0.4906   0.4426   0.4424   0.4279   0.4271
     0.4267   0.3803   0.3795   0.3691   0.3396   0.3261   0.3247   0.0061
     0.0000   0.0000   0.0000   0.0000   0.0000   0.0000   0.0000   0.0000
     0.0000   0.0000   0.0000   0.0000   0.0000   0.0000   0.0000   0.0000
     0.0000   0.0000   0.0000   0.0000   0.0000   0.0000   0.0000   0.0000
     0.0000   0.0000   0.0000   0.0000   0.0000   0.0000   0.0000   0.0000
     0.0000   0.0000   0.0000   0.0000   0.0000   0.0000   0.0000   0.0000
     0.0000   0.0000   0.0000   0.0000   0.0000   0.0000   0.0000   0.0000
     0.0000   0.0000   0.0000   0.0000   0.0000   0.0000   0.0000   0.0000
     0.0000   0.0000   0.0000   0.0000   0.0000   0.0000   0.0000   0.0000
     0.0000   0.0000   0.0000   0.0000   0.0000   0.0000   0.0000   0.0000
     0.0000   0.0000   0.0000   0.0000   0.0000   0.0000   0.0000   0.0000
     0.0000   0.0000   0.0000   0.0000   0.0000   0.0000   0.0000   0.0000
     0.0000   0.0000   0.0000   0.0000   0.0000   0.0000   0.0000   0.0000
     0.0000   0.0000   0.0000   0.0000   0.0000   0.0000   0.0000   0.0000
     0.0000   0.0000   0.0000   0.0000   0.0000   0.0000   0.0000   0.0000
     0.0000   0.0000   0.0000   0.0000   0.0000   0.0000   0.0000   0.0000
     0.0000   0.0000   0.0000   0.0000   0.0000   0.0000   0.0000   0.0000
     0.0000   0.0000   0.0000   0.0000   0.0000   0.0000   0.0000   0.0000
     0.0000   0.0000   0.0000   0.0000   0.0000   0.0000   0.0000   0.0000

          k = 0.0000-0.5774 0.0000 (319994 PWs)   bands (ev):

   -59.6888 -59.6845 -59.6833 -59.6480 -59.6467 -59.6463 -59.6269 -59.6253
   -59.6236 -59.6212 -59.6203 -59.6197 -59.6153 -59.6149 -59.6140 -59.6026
   -35.8279 -35.8260 -35.8218 -35.8072 -35.7976 -35.7906 -35.7889 -35.7811
   -35.7707 -35.7658 -35.7643 -35.7572 -35.7395 -35.7335 -35.7197 -35.7143
   -35.7138 -35.7120 -35.7032 -35.6998 -35.6992 -35.6911 -35.6840 -35.6805
   -35.6778 -35.6746 -35.6737 -35.6693 -35.6689 -35.6662 -35.6634 -35.6605
   -35.6595 -35.6532 -35.6515 -35.6502 -35.6490 -35.6439 -35.6435 -35.6401
   -35.6386 -35.6373 -35.6338 -35.6338 -35.6331 -35.6315 -35.6250 -35.6247
   -23.7064 -23.6736 -23.4520 -23.4453 -23.0497 -23.0456 -23.0313 -23.0239
   -22.9365 -22.6644 -22.6509 -22.6228 -22.4658 -22.4645 -22.4544 -22.4458
   -22.4090 -22.4054 -22.1454 -22.1398 -22.1233 -22.1197 -22.0252 -22.0146
   -22.0008 -21.9916 -21.9716 -21.9584 -21.9443 -21.9310 -21.8728 -21.8556
   -21.8485 -21.8464 -21.8122 -21.7649 -21.7627 -21.7454 -21.7381 -21.7142
   -21.7118 -21.6932 -21.6865 -21.6726 -21.6663 -21.6227 -21.6045 -21.5378
   -21.5258 -21.5212 -21.5070 -21.4747 -21.4745 -21.4680 -21.4608 -21.4509
   -21.4425 -21.4346 -21.4231 -21.4179 -21.4071 -21.3938 -21.3839 -21.3676
   -21.3624 -21.3406 -21.3213 -21.3034 -21.1976 -21.1952 -21.1838 -21.1807
   -21.0593 -21.0584 -21.0549 -21.0520 -21.0285 -21.0259 -21.0108 -20.9882
   -20.9875 -20.9455 -20.9435 -20.9211 -20.9201 -20.9196 -20.9189 -20.9188
   -20.9187 -20.6569 -20.6564 -20.1678 -20.1675 -20.1576 -20.1575 -19.5351
   -19.5341 -19.5080 -19.5076 -19.3997 -19.3978 -19.3424 -19.3421 -19.1317
   -19.1296 -19.0290 -18.9231 -18.9229 -18.8093 -18.8088 -18.5631 -18.5629
   -17.7450 -17.7208 -17.4698 -17.4601 -17.0687 -17.0607 -17.0526 -17.0487
   -16.9442 -16.8856 -16.8229 -16.8004 -16.7679 -16.7377 -16.7219 -16.6953
   -16.6892 -16.6874 -16.5880 -16.5853 -16.5261 -16.5243 -16.5197 -16.5160
   -16.4800 -16.4428 -16.3960 -16.3840 -16.3752 -16.3566 -16.3078 -16.3065
   -13.2675 -12.9390 -12.9371 -12.8602 -12.8596 -12.6503 -12.6482 -12.5700
   -12.5697 -12.4151 -12.4150 -12.1391 -12.1388 -12.0980 -12.0973 -11.6357
   -11.6354 -11.3301 -11.3299 -11.1698 -11.1694 -11.1258 -11.0315 -11.0120
   -10.9067 -10.8994 -10.8917 -10.8774 -10.8674 -10.8469 -10.8153 -10.7664
   -10.7663 -10.7600 -10.7516 -10.6911 -10.6800 -10.6732 -10.6550 -10.6471
   -10.6411 -10.4763 -10.4747 -10.3854 -10.3746 -10.3564 -10.3481 -10.3387
   -10.3242 -10.3079 -10.3012 -10.2301 -10.2297 -10.2071 -10.1974 -10.1830
   -10.1191 -10.1158 -10.1032 -10.0897 -10.0453 -10.0353 -10.0349 -10.0284
    -9.9065  -9.8283  -9.8278  -9.7873  -9.6710  -9.6638  -9.6528  -9.6446
    -9.6251  -9.6248  -9.5923  -9.5891  -9.5762  -9.5653  -9.4689  -9.4583
    -9.3694  -9.3688  -9.3020  -9.2896  -9.2839  -9.2759  -9.2697  -9.2582
    -9.2034  -9.2004  -9.1814  -9.1812  -9.1611  -9.1578  -9.1473  -9.1425
    -9.1197  -9.1110  -9.1052  -9.0907  -9.0665  -9.0483  -9.0452  -9.0309
    -9.0217  -9.0160  -9.0089  -8.9766  -8.9743  -8.9726  -8.9672  -8.9460
    -8.9321  -8.9255  -8.8847  -8.8230  -8.8221  -8.8206  -8.7875  -8.7531
    -8.7360  -8.7354  -8.7272  -8.7229  -8.7157  -8.7104  -8.6927  -8.6912
    -8.6775  -8.6760  -8.6684  -8.6233  -8.6161  -8.5981  -8.5873  -8.5792
    -8.5492  -8.5468  -8.5404  -8.5386  -8.4757  -8.4692  -8.4571  -8.4473
    -8.4433  -8.4272  -8.4089  -8.3937  -8.3892  -8.3332  -8.3191  -8.3072
    -8.3003  -8.2946  -8.2919  -8.2894  -8.2823  -8.2109  -8.2072  -8.1944
    -8.1633  -8.1540  -8.1466  -8.1463  -8.1421  -8.1309  -8.0800  -8.0786
    -8.0730  -8.0542  -8.0457  -7.9893  -7.9787  -7.9704  -7.9587  -7.9463
    -7.9373  -7.9353  -7.8990  -7.8907  -7.8457  -7.8329  -7.8209  -7.8178
    -7.8160  -7.8123  -7.8112  -7.8106  -7.7646  -7.7525  -7.7453  -7.7319
    -7.7188  -7.6995  -7.6948  -7.6800  -7.6703  -7.6594  -7.6474  -7.6423
    -7.6333  -7.6321  -7.6160  -7.6135  -7.6062  -7.5989  -7.5975  -7.5808
    -7.5704  -7.5677  -7.5642  -7.5494  -7.5489  -7.4909  -7.4551  -7.4360
    -7.4300  -7.4273  -7.3981  -7.3381  -7.3329  -7.3235  -7.3212  -7.2984
    -7.2913  -7.2877  -7.2612  -7.2542  -7.2525  -7.2105  -7.2027  -7.1991
    -7.1934  -7.1719  -7.1638  -7.1580  -7.0989  -7.0891  -7.0837  -7.0799
    -7.0754  -7.0573  -7.0144  -7.0121  -7.0041  -6.9656  -6.9579  -6.9522
    -6.9370  -6.9327  -6.9276  -6.9225  -6.8932  -6.8883  -6.8676  -6.8635
    -6.8598  -6.8579  -6.8531  -6.8447  -6.8373  -6.8303  -6.8148  -6.8072
    -6.8014  -6.7914  -6.7793  -6.7760  -6.7688  -6.7669  -6.7650  -6.7548
    -6.7443  -6.7367  -6.7166  -6.7095  -6.7044  -6.6935  -6.6847  -6.6813
    -6.6584  -6.6455  -6.6202  -6.5828  -6.5740  -6.5394  -6.5231  -6.4961
    -6.4905  -6.4443  -6.4342  -6.4242  -6.4171  -6.4110  -6.4044  -6.4018
    -6.3952  -6.3737  -6.3725  -6.3604  -6.3542  -6.3462  -6.3332  -6.3326
    -6.3317  -6.2926  -6.2493  -6.2434  -6.2381  -6.2359  -6.2297  -6.2061
    -6.2012  -6.1960  -6.1908  -6.1868  -6.1824  -6.1768  -6.1679  -6.1630
    -6.1568  -6.1554  -6.1456  -6.1399  -6.1336  -6.1259  -6.1221  -6.1118
    -6.0969  -6.0845  -6.0828  -6.0735  -6.0726  -6.0627  -6.0599  -6.0564
    -6.0523  -6.0488  -6.0466  -6.0385  -6.0310  -6.0230  -6.0195  -5.9560
    -5.9433  -5.9291  -5.9233  -5.8904  -5.8854  -5.8770  -5.8399  -5.8371
    -5.8346  -5.8200  -5.8164  -5.8074  -5.7980  -5.7955  -5.7714  -5.7627
    -5.7532  -5.7388  -5.7221  -5.7005  -5.6909  -5.6819  -5.6553  -5.6479
    -5.6367  -5.6241  -5.6208  -5.6095  -5.5941  -5.5856  -5.5707  -5.5609
    -5.5493  -5.5241  -5.4941  -5.4913  -5.4670  -5.4376  -5.4324  -5.4195
    -5.4047  -5.3808  -5.3636  -5.3550  -5.3487  -5.3431  -5.3252  -5.3119
    -5.3086  -5.2885  -5.2827  -5.2728  -5.2641  -5.2606  -5.2432  -5.2335
    -5.2134  -5.2070  -5.1500  -5.1467  -5.1336  -5.1217  -5.1150  -5.1059
    -5.0841  -5.0753  -5.0575  -5.0516  -5.0310  -5.0086  -4.9805  -4.9574
    -4.9318  -4.8597  -4.8363  -4.8299  -4.7894  -4.7864  -4.7813  -4.7764
    -4.7719  -4.7625  -4.7451  -4.7410  -4.6989  -4.6755  -4.6678  -4.6673
    -4.6260  -4.6246  -4.6157  -4.6052  -4.5743  -4.5712  -4.4809  -4.4620
    -4.4427  -4.4305  -4.2748  -4.2590  -4.1270  -4.1213  -3.9433  -3.9417
    -3.8240  -3.7891  -3.7803  -3.7798  -3.6327  -3.6314  -3.6282  -3.6245
    -3.6167  -2.6966  -2.6899  -2.2941  -2.2621  -2.2544  -2.2382  -2.2306
    -2.2183  -2.2098  -2.1793  -2.1773  -2.1673  -2.1019  -2.0854  -2.0064
    -2.0019  -1.9715  -1.9506  -1.9445  -1.9420  -1.9219  -1.9164  -1.8979
    -1.8740  -1.8634  -1.8531  -1.8230  -1.8202  -1.8102  -1.7904  -1.7766
    -1.7341  -1.6710  -1.6627  -1.5721  -1.5692  -1.5609  -1.5550  -1.4301
    -1.3919  -1.2681  -1.2629  -1.1774  -1.0422  -1.0324  -1.0168  -0.9880
    -0.9589  -0.9225  -0.9018  -0.8686  -0.8676  -0.8514  -0.8499  -0.5370
    -0.5368  -0.4936  -0.4812  -0.4463  -0.4396  -0.4348  -0.4294  -0.4270
    -0.4182  -0.3784  -0.3668  -0.3525  -0.3020  -0.2982  -0.2968  -0.2965
    -0.2950  -0.2830  -0.0615  -0.0487   0.0198   0.0701   0.0949   0.3073
     0.3129   0.3345   0.3400   0.6009   0.6171   0.6909   0.7092   0.7860
     0.7872   0.7926   0.7933   0.8048   0.8058   0.8256   0.8474   0.9065
     0.9260   0.9322   1.0107   1.0266   1.1095   1.1327   1.1783   1.1785
     1.1870   1.1878   1.1963   1.1980   1.2000   1.2282   1.2354   1.2844
     1.2940   1.4052   1.4295   1.4476   1.5130   1.5841   1.6306   1.6447
     1.6491   1.7184   1.7777   1.8397   1.8610   1.9112   1.9271   2.0468
     2.0639   2.0739   2.0893   2.0968   2.1425   2.1481   2.2311   2.2485

     occupation numbers 
     1.0000   1.0000   1.0000   1.0000   1.0000   1.0000   1.0000   1.0000
     1.0000   1.0000   1.0000   1.0000   1.0000   1.0000   1.0000   1.0000
     1.0000   1.0000   1.0000   1.0000   1.0000   1.0000   1.0000   1.0000
     1.0000   1.0000   1.0000   1.0000   1.0000   1.0000   1.0000   1.0000
     1.0000   1.0000   1.0000   1.0000   1.0000   1.0000   1.0000   1.0000
     1.0000   1.0000   1.0000   1.0000   1.0000   1.0000   1.0000   1.0000
     1.0000   1.0000   1.0000   1.0000   1.0000   1.0000   1.0000   1.0000
     1.0000   1.0000   1.0000   1.0000   1.0000   1.0000   1.0000   1.0000
     1.0000   1.0000   1.0000   1.0000   1.0000   1.0000   1.0000   1.0000
     1.0000   1.0000   1.0000   1.0000   1.0000   1.0000   1.0000   1.0000
     1.0000   1.0000   1.0000   1.0000   1.0000   1.0000   1.0000   1.0000
     1.0000   1.0000   1.0000   1.0000   1.0000   1.0000   1.0000   1.0000
     1.0000   1.0000   1.0000   1.0000   1.0000   1.0000   1.0000   1.0000
     1.0000   1.0000   1.0000   1.0000   1.0000   1.0000   1.0000   1.0000
     1.0000   1.0000   1.0000   1.0000   1.0000   1.0000   1.0000   1.0000
     1.0000   1.0000   1.0000   1.0000   1.0000   1.0000   1.0000   1.0000
     1.0000   1.0000   1.0000   1.0000   1.0000   1.0000   1.0000   1.0000
     1.0000   1.0000   1.0000   1.0000   1.0000   1.0000   1.0000   1.0000
     1.0000   1.0000   1.0000   1.0000   1.0000   1.0000   1.0000   1.0000
     1.0000   1.0000   1.0000   1.0000   1.0000   1.0000   1.0000   1.0000
     1.0000   1.0000   1.0000   1.0000   1.0000   1.0000   1.0000   1.0000
     1.0000   1.0000   1.0000   1.0000   1.0000   1.0000   1.0000   1.0000
     1.0000   1.0000   1.0000   1.0000   1.0000   1.0000   1.0000   1.0000
     1.0000   1.0000   1.0000   1.0000   1.0000   1.0000   1.0000   1.0000
     1.0000   1.0000   1.0000   1.0000   1.0000   1.0000   1.0000   1.0000
     1.0000   1.0000   1.0000   1.0000   1.0000   1.0000   1.0000   1.0000
     1.0000   1.0000   1.0000   1.0000   1.0000   1.0000   1.0000   1.0000
     1.0000   1.0000   1.0000   1.0000   1.0000   1.0000   1.0000   1.0000
     1.0000   1.0000   1.0000   1.0000   1.0000   1.0000   1.0000   1.0000
     1.0000   1.0000   1.0000   1.0000   1.0000   1.0000   1.0000   1.0000
     1.0000   1.0000   1.0000   1.0000   1.0000   1.0000   1.0000   1.0000
     1.0000   1.0000   1.0000   1.0000   1.0000   1.0000   1.0000   1.0000
     1.0000   1.0000   1.0000   1.0000   1.0000   1.0000   1.0000   1.0000
     1.0000   1.0000   1.0000   1.0000   1.0000   1.0000   1.0000   1.0000
     1.0000   1.0000   1.0000   1.0000   1.0000   1.0000   1.0000   1.0000
     1.0000   1.0000   1.0000   1.0000   1.0000   1.0000   1.0000   1.0000
     1.0000   1.0000   1.0000   1.0000   1.0000   1.0000   1.0000   1.0000
     1.0000   1.0000   1.0000   1.0000   1.0000   1.0000   1.0000   1.0000
     1.0000   1.0000   1.0000   1.0000   1.0000   1.0000   1.0000   1.0000
     1.0000   1.0000   1.0000   1.0000   1.0000   1.0000   1.0000   1.0000
     1.0000   1.0000   1.0000   1.0000   1.0000   1.0000   1.0000   1.0000
     1.0000   1.0000   1.0000   1.0000   1.0000   1.0000   1.0000   1.0000
     1.0000   1.0000   1.0000   1.0000   1.0000   1.0000   1.0000   1.0000
     1.0000   1.0000   1.0000   1.0000   1.0000   1.0000   1.0000   1.0000
     1.0000   1.0000   1.0000   1.0000   1.0000   1.0000   1.0000   1.0000
     1.0000   1.0000   1.0000   1.0000   1.0000   1.0000   1.0000   1.0000
     1.0000   1.0000   1.0000   1.0000   1.0000   1.0000   1.0000   1.0000
     1.0000   1.0000   1.0000   1.0000   1.0000   1.0000   1.0000   1.0000
     1.0000   1.0000   1.0000   1.0000   1.0000   1.0000   1.0000   1.0000
     1.0000   1.0000   1.0000   1.0000   1.0000   1.0000   1.0000   1.0000
     1.0000   1.0000   1.0000   1.0000   1.0000   1.0000   1.0000   1.0000
     1.0000   1.0000   1.0000   1.0000   1.0000   1.0000   1.0000   1.0000
     1.0000   1.0000   1.0000   1.0000   1.0000   1.0000   1.0000   1.0000
     1.0000   1.0000   1.0000   1.0000   1.0000   1.0000   1.0000   1.0000
     1.0000   1.0000   1.0000   1.0000   1.0000   1.0000   1.0000   1.0000
     1.0000   1.0000   1.0000   1.0000   1.0000   1.0000   1.0000   1.0000
     1.0000   1.0000   1.0000   1.0000   1.0000   1.0000   1.0000   1.0000
     1.0000   1.0000   1.0000   1.0000   1.0000   1.0000   1.0000   1.0000
     1.0000   1.0000   1.0000   1.0000   1.0000   1.0000   1.0000   1.0000
     1.0000   1.0000   1.0000   1.0000   1.0000   1.0000   1.0000   1.0000
     1.0000   1.0000   1.0000   1.0000   1.0000   1.0000   1.0000   1.0000
     1.0000   1.0000   1.0000   1.0000   1.0000   1.0000   1.0000   1.0000
     1.0000   1.0000   1.0000   1.0000   1.0000   1.0000   1.0000   1.0000
     1.0000   1.0000   1.0000   1.0000   1.0000   1.0000   1.0000   1.0000
     1.0000   1.0000   1.0000   1.0000   1.0000   1.0000   1.0000   1.0000
     1.0000   1.0000   1.0000   1.0000   1.0000   1.0000   1.0000   1.0000
     1.0000   1.0000   1.0000   1.0000   1.0000   1.0000   1.0000   1.0000
     1.0000   1.0000   1.0000   1.0000   1.0000   1.0000   1.0000   1.0000
     1.0000   1.0000   1.0000   1.0000   1.0000   1.0000   1.0000   1.0000
     1.0000   1.0000   1.0000   1.0000   1.0000   1.0000   1.0000   1.0000
     1.0000   1.0000   1.0000   1.0000   1.0000   1.0000   1.0000   1.0000
     1.0000   1.0000   1.0000   1.0000   1.0000   1.0000   1.0000   1.0000
     1.0000   1.0000   1.0000   1.0000   1.0000   1.0000   1.0000   1.0000
     1.0000   1.0000   1.0000   1.0000   1.0000   1.0000   1.0000   1.0001
     1.0001   1.0001   1.0002   1.0002   1.0003   1.0003   1.0004   1.0005
     1.0005   1.0008   1.0009   1.0010   1.0012   1.0012   1.0017   1.0019
     1.0026   1.0029   1.0065   1.0068   1.0081   1.0094   1.0103   1.0115
     1.0148   1.0163   1.0198   1.0210   1.0259   1.0318   1.0403   1.0480
     1.0568   1.0785   1.0823   1.0829   1.0803   1.0796   1.0783   1.0768
     1.0751   1.0712   1.0615   1.0588   1.0191   0.9876   0.9758   0.9750
     0.8993   0.8962   0.8773   0.8539   0.7791   0.7713   0.5260   0.4748
     0.4240   0.3931   0.1095   0.0931   0.0186   0.0172   0.0009   0.0009
     0.0001   0.0000   0.0000   0.0000   0.0000   0.0000   0.0000   0.0000
     0.0000   0.0000   0.0000   0.0000   0.0000   0.0000   0.0000   0.0000
     0.0000   0.0000   0.0000   0.0000   0.0000   0.0000   0.0000   0.0000
     0.0000   0.0000   0.0000   0.0000   0.0000   0.0000   0.0000   0.0000
     0.0000   0.0000   0.0000   0.0000   0.0000   0.0000   0.0000   0.0000
     0.0000   0.0000   0.0000   0.0000   0.0000   0.0000   0.0000   0.0000
     0.0000   0.0000   0.0000   0.0000   0.0000   0.0000   0.0000   0.0000
     0.0000   0.0000   0.0000   0.0000   0.0000   0.0000   0.0000   0.0000
     0.0000   0.0000   0.0000   0.0000   0.0000   0.0000   0.0000   0.0000
     0.0000   0.0000   0.0000   0.0000   0.0000   0.0000   0.0000   0.0000
     0.0000   0.0000   0.0000   0.0000   0.0000   0.0000   0.0000   0.0000
     0.0000   0.0000   0.0000   0.0000   0.0000   0.0000   0.0000   0.0000
     0.0000   0.0000   0.0000   0.0000   0.0000   0.0000   0.0000   0.0000
     0.0000   0.0000   0.0000   0.0000   0.0000   0.0000   0.0000   0.0000
     0.0000   0.0000   0.0000   0.0000   0.0000   0.0000   0.0000   0.0000
     0.0000   0.0000   0.0000   0.0000   0.0000   0.0000   0.0000   0.0000
     0.0000   0.0000   0.0000   0.0000   0.0000   0.0000   0.0000   0.0000
     0.0000   0.0000   0.0000   0.0000   0.0000   0.0000   0.0000   0.0000

          k =-0.5000-0.2887 0.0000 (319994 PWs)   bands (ev):

   -59.6888 -59.6845 -59.6833 -59.6479 -59.6468 -59.6462 -59.6269 -59.6253
   -59.6236 -59.6214 -59.6203 -59.6196 -59.6152 -59.6150 -59.6140 -59.6026
   -35.8276 -35.8265 -35.8218 -35.8070 -35.7980 -35.7904 -35.7889 -35.7812
   -35.7704 -35.7658 -35.7643 -35.7571 -35.7396 -35.7336 -35.7197 -35.7142
   -35.7134 -35.7121 -35.7036 -35.7001 -35.6988 -35.6906 -35.6841 -35.6806
   -35.6778 -35.6747 -35.6737 -35.6696 -35.6685 -35.6660 -35.6633 -35.6605
   -35.6594 -35.6534 -35.6514 -35.6501 -35.6492 -35.6440 -35.6436 -35.6402
   -35.6383 -35.6373 -35.6338 -35.6338 -35.6334 -35.6314 -35.6250 -35.6248
   -23.7064 -23.6736 -23.4520 -23.4453 -23.0497 -23.0456 -23.0314 -23.0238
   -22.9365 -22.6645 -22.6508 -22.6228 -22.4659 -22.4645 -22.4542 -22.4459
   -22.4092 -22.4052 -22.1454 -22.1398 -22.1233 -22.1197 -22.0252 -22.0147
   -22.0009 -21.9915 -21.9716 -21.9585 -21.9443 -21.9309 -21.8728 -21.8556
   -21.8485 -21.8464 -21.8123 -21.7649 -21.7627 -21.7453 -21.7381 -21.7142
   -21.7118 -21.6931 -21.6866 -21.6726 -21.6664 -21.6227 -21.6045 -21.5378
   -21.5258 -21.5212 -21.5070 -21.4747 -21.4745 -21.4680 -21.4608 -21.4510
   -21.4425 -21.4345 -21.4232 -21.4177 -21.4072 -21.3937 -21.3840 -21.3676
   -21.3625 -21.3406 -21.3212 -21.3035 -21.1976 -21.1953 -21.1837 -21.1808
   -21.0593 -21.0584 -21.0549 -21.0520 -21.0285 -21.0259 -21.0108 -20.9882
   -20.9875 -20.9455 -20.9435 -20.9211 -20.9201 -20.9196 -20.9189 -20.9188
   -20.9187 -20.6569 -20.6564 -20.1678 -20.1675 -20.1576 -20.1575 -19.5351
   -19.5341 -19.5080 -19.5076 -19.3997 -19.3978 -19.3424 -19.3421 -19.1317
   -19.1296 -19.0290 -18.9231 -18.9229 -18.8093 -18.8088 -18.5631 -18.5629
   -17.7450 -17.7207 -17.4699 -17.4601 -17.0686 -17.0609 -17.0527 -17.0484
   -16.9442 -16.8855 -16.8228 -16.8006 -16.7680 -16.7378 -16.7219 -16.6952
   -16.6892 -16.6871 -16.5880 -16.5854 -16.5262 -16.5243 -16.5196 -16.5160
   -16.4801 -16.4427 -16.3958 -16.3836 -16.3755 -16.3568 -16.3078 -16.3065
   -13.2675 -12.9390 -12.9371 -12.8602 -12.8596 -12.6503 -12.6482 -12.5700
   -12.5697 -12.4151 -12.4150 -12.1391 -12.1388 -12.0980 -12.0973 -11.6357
   -11.6354 -11.3301 -11.3299 -11.1698 -11.1693 -11.1259 -11.0315 -11.0120
   -10.9066 -10.8994 -10.8917 -10.8773 -10.8675 -10.8468 -10.8153 -10.7664
   -10.7663 -10.7600 -10.7516 -10.6911 -10.6800 -10.6733 -10.6550 -10.6472
   -10.6411 -10.4763 -10.4747 -10.3854 -10.3745 -10.3564 -10.3481 -10.3387
   -10.3242 -10.3079 -10.3012 -10.2301 -10.2297 -10.2071 -10.1973 -10.1830
   -10.1191 -10.1158 -10.1032 -10.0897 -10.0453 -10.0353 -10.0349 -10.0284
    -9.9065  -9.8283  -9.8278  -9.7872  -9.6710  -9.6638  -9.6528  -9.6446
    -9.6251  -9.6248  -9.5923  -9.5891  -9.5761  -9.5653  -9.4689  -9.4583
    -9.3694  -9.3688  -9.3019  -9.2896  -9.2840  -9.2759  -9.2698  -9.2581
    -9.2034  -9.2004  -9.1814  -9.1812  -9.1611  -9.1579  -9.1473  -9.1425
    -9.1197  -9.1110  -9.1053  -9.0906  -9.0663  -9.0483  -9.0452  -9.0311
    -9.0217  -9.0158  -9.0089  -8.9764  -8.9744  -8.9725  -8.9674  -8.9461
    -8.9321  -8.9254  -8.8847  -8.8230  -8.8221  -8.8207  -8.7875  -8.7530
    -8.7361  -8.7353  -8.7272  -8.7229  -8.7156  -8.7105  -8.6926  -8.6912
    -8.6775  -8.6760  -8.6684  -8.6233  -8.6161  -8.5982  -8.5875  -8.5793
    -8.5491  -8.5464  -8.5404  -8.5385  -8.4758  -8.4691  -8.4571  -8.4472
    -8.4433  -8.4272  -8.4090  -8.3936  -8.3891  -8.3330  -8.3195  -8.3067
    -8.3004  -8.2947  -8.2921  -8.2895  -8.2823  -8.2108  -8.2072  -8.1944
    -8.1638  -8.1539  -8.1466  -8.1463  -8.1420  -8.1311  -8.0801  -8.0786
    -8.0730  -8.0542  -8.0457  -7.9892  -7.9786  -7.9704  -7.9585  -7.9463
    -7.9373  -7.9353  -7.8990  -7.8907  -7.8457  -7.8329  -7.8210  -7.8178
    -7.8160  -7.8123  -7.8111  -7.8106  -7.7646  -7.7525  -7.7453  -7.7319
    -7.7192  -7.6995  -7.6948  -7.6798  -7.6702  -7.6594  -7.6474  -7.6421
    -7.6331  -7.6320  -7.6160  -7.6132  -7.6062  -7.5989  -7.5976  -7.5809
    -7.5704  -7.5677  -7.5643  -7.5494  -7.5489  -7.4910  -7.4552  -7.4360
    -7.4300  -7.4273  -7.3981  -7.3381  -7.3329  -7.3235  -7.3214  -7.2987
    -7.2914  -7.2877  -7.2610  -7.2542  -7.2525  -7.2107  -7.2027  -7.1994
    -7.1935  -7.1720  -7.1639  -7.1580  -7.0989  -7.0891  -7.0837  -7.0800
    -7.0753  -7.0574  -7.0147  -7.0121  -7.0042  -6.9658  -6.9578  -6.9520
    -6.9371  -6.9327  -6.9277  -6.9224  -6.8935  -6.8879  -6.8673  -6.8635
    -6.8598  -6.8580  -6.8529  -6.8444  -6.8369  -6.8300  -6.8149  -6.8073
    -6.8013  -6.7913  -6.7795  -6.7760  -6.7690  -6.7663  -6.7651  -6.7550
    -6.7443  -6.7368  -6.7165  -6.7095  -6.7042  -6.6934  -6.6847  -6.6814
    -6.6584  -6.6455  -6.6202  -6.5828  -6.5741  -6.5393  -6.5231  -6.4960
    -6.4904  -6.4442  -6.4343  -6.4242  -6.4171  -6.4111  -6.4044  -6.4020
    -6.3950  -6.3735  -6.3725  -6.3605  -6.3542  -6.3462  -6.3331  -6.3325
    -6.3316  -6.2926  -6.2493  -6.2434  -6.2382  -6.2359  -6.2298  -6.2062
    -6.2012  -6.1961  -6.1909  -6.1868  -6.1824  -6.1769  -6.1682  -6.1630
    -6.1567  -6.1556  -6.1456  -6.1398  -6.1335  -6.1260  -6.1222  -6.1113
    -6.0970  -6.0845  -6.0826  -6.0739  -6.0726  -6.0624  -6.0599  -6.0566
    -6.0523  -6.0488  -6.0466  -6.0384  -6.0308  -6.0230  -6.0194  -5.9560
    -5.9433  -5.9291  -5.9233  -5.8904  -5.8854  -5.8770  -5.8398  -5.8370
    -5.8348  -5.8197  -5.8164  -5.8074  -5.7981  -5.7956  -5.7714  -5.7625
    -5.7532  -5.7389  -5.7221  -5.7004  -5.6907  -5.6818  -5.6552  -5.6480
    -5.6366  -5.6243  -5.6207  -5.6095  -5.5940  -5.5857  -5.5709  -5.5611
    -5.5492  -5.5240  -5.4941  -5.4912  -5.4672  -5.4376  -5.4324  -5.4198
    -5.4048  -5.3807  -5.3635  -5.3550  -5.3486  -5.3430  -5.3252  -5.3120
    -5.3086  -5.2884  -5.2826  -5.2729  -5.2641  -5.2606  -5.2431  -5.2332
    -5.2133  -5.2072  -5.1501  -5.1467  -5.1335  -5.1218  -5.1150  -5.1059
    -5.0841  -5.0752  -5.0574  -5.0516  -5.0308  -5.0086  -4.9806  -4.9569
    -4.9324  -4.8596  -4.8364  -4.8297  -4.7895  -4.7864  -4.7814  -4.7764
    -4.7719  -4.7624  -4.7451  -4.7412  -4.6993  -4.6758  -4.6678  -4.6673
    -4.6261  -4.6247  -4.6156  -4.6050  -4.5743  -4.5712  -4.4810  -4.4634
    -4.4411  -4.4303  -4.2747  -4.2587  -4.1271  -4.1213  -3.9432  -3.9417
    -3.8242  -3.7891  -3.7803  -3.7798  -3.6327  -3.6314  -3.6282  -3.6245
    -3.6167  -2.6967  -2.6898  -2.2944  -2.2617  -2.2543  -2.2387  -2.2307
    -2.2180  -2.2099  -2.1789  -2.1772  -2.1673  -2.1021  -2.0857  -2.0064
    -2.0020  -1.9712  -1.9513  -1.9445  -1.9421  -1.9220  -1.9160  -1.8988
    -1.8739  -1.8627  -1.8520  -1.8235  -1.8208  -1.8095  -1.7914  -1.7759
    -1.7334  -1.6716  -1.6620  -1.5723  -1.5688  -1.5610  -1.5549  -1.4302
    -1.3921  -1.2682  -1.2633  -1.1780  -1.0419  -1.0327  -1.0171  -0.9862
    -0.9598  -0.9220  -0.9031  -0.8685  -0.8674  -0.8514  -0.8499  -0.5371
    -0.5368  -0.4931  -0.4809  -0.4459  -0.4397  -0.4349  -0.4290  -0.4269
    -0.4180  -0.3784  -0.3670  -0.3522  -0.3023  -0.2982  -0.2969  -0.2965
    -0.2950  -0.2835  -0.0616  -0.0487   0.0198   0.0700   0.0949   0.3073
     0.3130   0.3345   0.3400   0.6009   0.6171   0.6908   0.7092   0.7860
     0.7872   0.7926   0.7933   0.8048   0.8058   0.8257   0.8474   0.9065
     0.9260   0.9322   1.0108   1.0264   1.1094   1.1329   1.1783   1.1785
     1.1870   1.1878   1.1963   1.1980   1.1999   1.2282   1.2356   1.2842
     1.2939   1.4052   1.4294   1.4479   1.5129   1.5841   1.6306   1.6448
     1.6491   1.7184   1.7774   1.8396   1.8611   1.9114   1.9270   2.0466
     2.0642   2.0739   2.0892   2.0968   2.1422   2.1479   2.2308   2.2486

     occupation numbers 
     1.0000   1.0000   1.0000   1.0000   1.0000   1.0000   1.0000   1.0000
     1.0000   1.0000   1.0000   1.0000   1.0000   1.0000   1.0000   1.0000
     1.0000   1.0000   1.0000   1.0000   1.0000   1.0000   1.0000   1.0000
     1.0000   1.0000   1.0000   1.0000   1.0000   1.0000   1.0000   1.0000
     1.0000   1.0000   1.0000   1.0000   1.0000   1.0000   1.0000   1.0000
     1.0000   1.0000   1.0000   1.0000   1.0000   1.0000   1.0000   1.0000
     1.0000   1.0000   1.0000   1.0000   1.0000   1.0000   1.0000   1.0000
     1.0000   1.0000   1.0000   1.0000   1.0000   1.0000   1.0000   1.0000
     1.0000   1.0000   1.0000   1.0000   1.0000   1.0000   1.0000   1.0000
     1.0000   1.0000   1.0000   1.0000   1.0000   1.0000   1.0000   1.0000
     1.0000   1.0000   1.0000   1.0000   1.0000   1.0000   1.0000   1.0000
     1.0000   1.0000   1.0000   1.0000   1.0000   1.0000   1.0000   1.0000
     1.0000   1.0000   1.0000   1.0000   1.0000   1.0000   1.0000   1.0000
     1.0000   1.0000   1.0000   1.0000   1.0000   1.0000   1.0000   1.0000
     1.0000   1.0000   1.0000   1.0000   1.0000   1.0000   1.0000   1.0000
     1.0000   1.0000   1.0000   1.0000   1.0000   1.0000   1.0000   1.0000
     1.0000   1.0000   1.0000   1.0000   1.0000   1.0000   1.0000   1.0000
     1.0000   1.0000   1.0000   1.0000   1.0000   1.0000   1.0000   1.0000
     1.0000   1.0000   1.0000   1.0000   1.0000   1.0000   1.0000   1.0000
     1.0000   1.0000   1.0000   1.0000   1.0000   1.0000   1.0000   1.0000
     1.0000   1.0000   1.0000   1.0000   1.0000   1.0000   1.0000   1.0000
     1.0000   1.0000   1.0000   1.0000   1.0000   1.0000   1.0000   1.0000
     1.0000   1.0000   1.0000   1.0000   1.0000   1.0000   1.0000   1.0000
     1.0000   1.0000   1.0000   1.0000   1.0000   1.0000   1.0000   1.0000
     1.0000   1.0000   1.0000   1.0000   1.0000   1.0000   1.0000   1.0000
     1.0000   1.0000   1.0000   1.0000   1.0000   1.0000   1.0000   1.0000
     1.0000   1.0000   1.0000   1.0000   1.0000   1.0000   1.0000   1.0000
     1.0000   1.0000   1.0000   1.0000   1.0000   1.0000   1.0000   1.0000
     1.0000   1.0000   1.0000   1.0000   1.0000   1.0000   1.0000   1.0000
     1.0000   1.0000   1.0000   1.0000   1.0000   1.0000   1.0000   1.0000
     1.0000   1.0000   1.0000   1.0000   1.0000   1.0000   1.0000   1.0000
     1.0000   1.0000   1.0000   1.0000   1.0000   1.0000   1.0000   1.0000
     1.0000   1.0000   1.0000   1.0000   1.0000   1.0000   1.0000   1.0000
     1.0000   1.0000   1.0000   1.0000   1.0000   1.0000   1.0000   1.0000
     1.0000   1.0000   1.0000   1.0000   1.0000   1.0000   1.0000   1.0000
     1.0000   1.0000   1.0000   1.0000   1.0000   1.0000   1.0000   1.0000
     1.0000   1.0000   1.0000   1.0000   1.0000   1.0000   1.0000   1.0000
     1.0000   1.0000   1.0000   1.0000   1.0000   1.0000   1.0000   1.0000
     1.0000   1.0000   1.0000   1.0000   1.0000   1.0000   1.0000   1.0000
     1.0000   1.0000   1.0000   1.0000   1.0000   1.0000   1.0000   1.0000
     1.0000   1.0000   1.0000   1.0000   1.0000   1.0000   1.0000   1.0000
     1.0000   1.0000   1.0000   1.0000   1.0000   1.0000   1.0000   1.0000
     1.0000   1.0000   1.0000   1.0000   1.0000   1.0000   1.0000   1.0000
     1.0000   1.0000   1.0000   1.0000   1.0000   1.0000   1.0000   1.0000
     1.0000   1.0000   1.0000   1.0000   1.0000   1.0000   1.0000   1.0000
     1.0000   1.0000   1.0000   1.0000   1.0000   1.0000   1.0000   1.0000
     1.0000   1.0000   1.0000   1.0000   1.0000   1.0000   1.0000   1.0000
     1.0000   1.0000   1.0000   1.0000   1.0000   1.0000   1.0000   1.0000
     1.0000   1.0000   1.0000   1.0000   1.0000   1.0000   1.0000   1.0000
     1.0000   1.0000   1.0000   1.0000   1.0000   1.0000   1.0000   1.0000
     1.0000   1.0000   1.0000   1.0000   1.0000   1.0000   1.0000   1.0000
     1.0000   1.0000   1.0000   1.0000   1.0000   1.0000   1.0000   1.0000
     1.0000   1.0000   1.0000   1.0000   1.0000   1.0000   1.0000   1.0000
     1.0000   1.0000   1.0000   1.0000   1.0000   1.0000   1.0000   1.0000
     1.0000   1.0000   1.0000   1.0000   1.0000   1.0000   1.0000   1.0000
     1.0000   1.0000   1.0000   1.0000   1.0000   1.0000   1.0000   1.0000
     1.0000   1.0000   1.0000   1.0000   1.0000   1.0000   1.0000   1.0000
     1.0000   1.0000   1.0000   1.0000   1.0000   1.0000   1.0000   1.0000
     1.0000   1.0000   1.0000   1.0000   1.0000   1.0000   1.0000   1.0000
     1.0000   1.0000   1.0000   1.0000   1.0000   1.0000   1.0000   1.0000
     1.0000   1.0000   1.0000   1.0000   1.0000   1.0000   1.0000   1.0000
     1.0000   1.0000   1.0000   1.0000   1.0000   1.0000   1.0000   1.0000
     1.0000   1.0000   1.0000   1.0000   1.0000   1.0000   1.0000   1.0000
     1.0000   1.0000   1.0000   1.0000   1.0000   1.0000   1.0000   1.0000
     1.0000   1.0000   1.0000   1.0000   1.0000   1.0000   1.0000   1.0000
     1.0000   1.0000   1.0000   1.0000   1.0000   1.0000   1.0000   1.0000
     1.0000   1.0000   1.0000   1.0000   1.0000   1.0000   1.0000   1.0000
     1.0000   1.0000   1.0000   1.0000   1.0000   1.0000   1.0000   1.0000
     1.0000   1.0000   1.0000   1.0000   1.0000   1.0000   1.0000   1.0000
     1.0000   1.0000   1.0000   1.0000   1.0000   1.0000   1.0000   1.0000
     1.0000   1.0000   1.0000   1.0000   1.0000   1.0000   1.0000   1.0000
     1.0000   1.0000   1.0000   1.0000   1.0000   1.0000   1.0000   1.0000
     1.0000   1.0000   1.0000   1.0000   1.0000   1.0000   1.0000   1.0000
     1.0000   1.0000   1.0000   1.0000   1.0000   1.0000   1.0000   1.0001
     1.0001   1.0001   1.0002   1.0002   1.0003   1.0003   1.0004   1.0005
     1.0005   1.0008   1.0009   1.0010   1.0012   1.0012   1.0017   1.0019
     1.0026   1.0029   1.0065   1.0068   1.0081   1.0094   1.0103   1.0115
     1.0148   1.0163   1.0198   1.0210   1.0259   1.0318   1.0403   1.0481
     1.0566   1.0785   1.0823   1.0829   1.0803   1.0796   1.0783   1.0768
     1.0752   1.0712   1.0615   1.0589   1.0195   0.9881   0.9758   0.9750
     0.8994   0.8964   0.8771   0.8534   0.7791   0.7713   0.5262   0.4785
     0.4199   0.3927   0.1095   0.0928   0.0186   0.0172   0.0009   0.0009
     0.0001   0.0000   0.0000   0.0000   0.0000   0.0000   0.0000   0.0000
     0.0000   0.0000   0.0000   0.0000   0.0000   0.0000   0.0000   0.0000
     0.0000   0.0000   0.0000   0.0000   0.0000   0.0000   0.0000   0.0000
     0.0000   0.0000   0.0000   0.0000   0.0000   0.0000   0.0000   0.0000
     0.0000   0.0000   0.0000   0.0000   0.0000   0.0000   0.0000   0.0000
     0.0000   0.0000   0.0000   0.0000   0.0000   0.0000   0.0000   0.0000
     0.0000   0.0000   0.0000   0.0000   0.0000   0.0000   0.0000   0.0000
     0.0000   0.0000   0.0000   0.0000   0.0000   0.0000   0.0000   0.0000
     0.0000   0.0000   0.0000   0.0000   0.0000   0.0000   0.0000   0.0000
     0.0000   0.0000   0.0000   0.0000   0.0000   0.0000   0.0000   0.0000
     0.0000   0.0000   0.0000   0.0000   0.0000   0.0000   0.0000   0.0000
     0.0000   0.0000   0.0000   0.0000   0.0000   0.0000   0.0000   0.0000
     0.0000   0.0000   0.0000   0.0000   0.0000   0.0000   0.0000   0.0000
     0.0000   0.0000   0.0000   0.0000   0.0000   0.0000   0.0000   0.0000
     0.0000   0.0000   0.0000   0.0000   0.0000   0.0000   0.0000   0.0000
     0.0000   0.0000   0.0000   0.0000   0.0000   0.0000   0.0000   0.0000
     0.0000   0.0000   0.0000   0.0000   0.0000   0.0000   0.0000   0.0000
     0.0000   0.0000   0.0000   0.0000   0.0000   0.0000   0.0000   0.0000

          k =-0.5000-0.8660 0.0000 (319994 PWs)   bands (ev):

   -59.6888 -59.6845 -59.6833 -59.6479 -59.6468 -59.6462 -59.6270 -59.6251
   -59.6239 -59.6213 -59.6201 -59.6198 -59.6154 -59.6149 -59.6140 -59.6026
   -35.8276 -35.8264 -35.8218 -35.8070 -35.7979 -35.7905 -35.7889 -35.7811
   -35.7704 -35.7660 -35.7643 -35.7570 -35.7396 -35.7336 -35.7197 -35.7142
   -35.7135 -35.7121 -35.7036 -35.7000 -35.6989 -35.6907 -35.6841 -35.6806
   -35.6780 -35.6746 -35.6736 -35.6698 -35.6685 -35.6659 -35.6635 -35.6605
   -35.6593 -35.6533 -35.6514 -35.6503 -35.6491 -35.6438 -35.6435 -35.6401
   -35.6384 -35.6374 -35.6338 -35.6337 -35.6333 -35.6316 -35.6250 -35.6247
   -23.7064 -23.6736 -23.4520 -23.4453 -23.0497 -23.0456 -23.0314 -23.0238
   -22.9365 -22.6645 -22.6508 -22.6228 -22.4660 -22.4645 -22.4542 -22.4459
   -22.4091 -22.4052 -22.1454 -22.1398 -22.1233 -22.1197 -22.0252 -22.0145
   -22.0009 -21.9915 -21.9716 -21.9585 -21.9443 -21.9309 -21.8728 -21.8555
   -21.8485 -21.8464 -21.8123 -21.7649 -21.7627 -21.7453 -21.7381 -21.7142
   -21.7118 -21.6932 -21.6866 -21.6725 -21.6664 -21.6227 -21.6045 -21.5378
   -21.5258 -21.5211 -21.5071 -21.4747 -21.4745 -21.4680 -21.4608 -21.4509
   -21.4425 -21.4346 -21.4231 -21.4178 -21.4072 -21.3936 -21.3840 -21.3676
   -21.3624 -21.3406 -21.3213 -21.3034 -21.1976 -21.1952 -21.1838 -21.1808
   -21.0593 -21.0584 -21.0549 -21.0520 -21.0285 -21.0259 -21.0108 -20.9882
   -20.9875 -20.9455 -20.9435 -20.9211 -20.9201 -20.9196 -20.9189 -20.9188
   -20.9187 -20.6569 -20.6564 -20.1678 -20.1675 -20.1576 -20.1575 -19.5351
   -19.5341 -19.5080 -19.5076 -19.3997 -19.3978 -19.3424 -19.3421 -19.1317
   -19.1296 -19.0290 -18.9231 -18.9229 -18.8093 -18.8088 -18.5631 -18.5629
   -17.7450 -17.7208 -17.4699 -17.4601 -17.0689 -17.0606 -17.0524 -17.0487
   -16.9442 -16.8856 -16.8228 -16.8006 -16.7679 -16.7377 -16.7219 -16.6952
   -16.6892 -16.6872 -16.5882 -16.5852 -16.5260 -16.5243 -16.5198 -16.5161
   -16.4800 -16.4428 -16.3958 -16.3837 -16.3754 -16.3567 -16.3079 -16.3064
   -13.2675 -12.9390 -12.9371 -12.8602 -12.8596 -12.6503 -12.6482 -12.5700
   -12.5697 -12.4151 -12.4150 -12.1391 -12.1388 -12.0980 -12.0973 -11.6357
   -11.6354 -11.3301 -11.3299 -11.1698 -11.1694 -11.1258 -11.0315 -11.0120
   -10.9066 -10.8994 -10.8917 -10.8773 -10.8675 -10.8468 -10.8153 -10.7664
   -10.7663 -10.7600 -10.7516 -10.6911 -10.6800 -10.6732 -10.6550 -10.6472
   -10.6411 -10.4763 -10.4747 -10.3854 -10.3745 -10.3564 -10.3481 -10.3387
   -10.3242 -10.3080 -10.3012 -10.2301 -10.2297 -10.2071 -10.1974 -10.1830
   -10.1191 -10.1158 -10.1032 -10.0897 -10.0453 -10.0353 -10.0349 -10.0284
    -9.9065  -9.8283  -9.8279  -9.7872  -9.6710  -9.6638  -9.6528  -9.6446
    -9.6251  -9.6248  -9.5923  -9.5891  -9.5761  -9.5653  -9.4689  -9.4583
    -9.3694  -9.3688  -9.3019  -9.2896  -9.2840  -9.2760  -9.2697  -9.2581
    -9.2034  -9.2004  -9.1814  -9.1812  -9.1611  -9.1578  -9.1472  -9.1426
    -9.1197  -9.1109  -9.1053  -9.0907  -9.0664  -9.0483  -9.0452  -9.0309
    -9.0216  -9.0160  -9.0089  -8.9764  -8.9743  -8.9726  -8.9673  -8.9462
    -8.9321  -8.9254  -8.8848  -8.8230  -8.8221  -8.8207  -8.7874  -8.7530
    -8.7361  -8.7353  -8.7273  -8.7229  -8.7156  -8.7105  -8.6927  -8.6912
    -8.6775  -8.6759  -8.6685  -8.6233  -8.6162  -8.5981  -8.5877  -8.5792
    -8.5490  -8.5465  -8.5403  -8.5386  -8.4757  -8.4693  -8.4570  -8.4473
    -8.4432  -8.4271  -8.4090  -8.3936  -8.3891  -8.3332  -8.3195  -8.3069
    -8.3003  -8.2944  -8.2920  -8.2896  -8.2824  -8.2108  -8.2072  -8.1944
    -8.1638  -8.1539  -8.1466  -8.1463  -8.1420  -8.1311  -8.0801  -8.0785
    -8.0730  -8.0542  -8.0457  -7.9893  -7.9786  -7.9704  -7.9587  -7.9464
    -7.9372  -7.9351  -7.8989  -7.8908  -7.8456  -7.8328  -7.8209  -7.8178
    -7.8160  -7.8123  -7.8111  -7.8106  -7.7646  -7.7526  -7.7452  -7.7321
    -7.7190  -7.6995  -7.6948  -7.6798  -7.6701  -7.6594  -7.6475  -7.6420
    -7.6332  -7.6317  -7.6161  -7.6135  -7.6063  -7.5989  -7.5975  -7.5808
    -7.5705  -7.5678  -7.5643  -7.5494  -7.5489  -7.4909  -7.4552  -7.4360
    -7.4300  -7.4273  -7.3981  -7.3381  -7.3329  -7.3235  -7.3214  -7.2986
    -7.2914  -7.2878  -7.2612  -7.2542  -7.2524  -7.2107  -7.2028  -7.1993
    -7.1937  -7.1719  -7.1637  -7.1580  -7.0989  -7.0891  -7.0838  -7.0800
    -7.0754  -7.0573  -7.0146  -7.0121  -7.0042  -6.9658  -6.9578  -6.9519
    -6.9368  -6.9327  -6.9276  -6.9224  -6.8936  -6.8883  -6.8671  -6.8635
    -6.8598  -6.8578  -6.8530  -6.8445  -6.8370  -6.8302  -6.8150  -6.8071
    -6.8016  -6.7913  -6.7795  -6.7761  -6.7687  -6.7662  -6.7651  -6.7548
    -6.7443  -6.7367  -6.7166  -6.7094  -6.7044  -6.6933  -6.6847  -6.6813
    -6.6583  -6.6455  -6.6202  -6.5829  -6.5741  -6.5393  -6.5231  -6.4958
    -6.4903  -6.4442  -6.4343  -6.4246  -6.4171  -6.4112  -6.4045  -6.4018
    -6.3951  -6.3735  -6.3726  -6.3603  -6.3542  -6.3463  -6.3331  -6.3325
    -6.3315  -6.2926  -6.2493  -6.2433  -6.2382  -6.2359  -6.2298  -6.2063
    -6.2010  -6.1960  -6.1909  -6.1868  -6.1823  -6.1768  -6.1683  -6.1631
    -6.1567  -6.1557  -6.1457  -6.1398  -6.1335  -6.1260  -6.1222  -6.1114
    -6.0969  -6.0843  -6.0827  -6.0737  -6.0728  -6.0625  -6.0600  -6.0564
    -6.0523  -6.0488  -6.0466  -6.0384  -6.0309  -6.0230  -6.0195  -5.9560
    -5.9433  -5.9291  -5.9233  -5.8904  -5.8853  -5.8769  -5.8399  -5.8371
    -5.8348  -5.8198  -5.8164  -5.8074  -5.7981  -5.7956  -5.7716  -5.7626
    -5.7532  -5.7390  -5.7220  -5.7004  -5.6909  -5.6817  -5.6552  -5.6479
    -5.6367  -5.6243  -5.6207  -5.6095  -5.5938  -5.5858  -5.5709  -5.5610
    -5.5493  -5.5242  -5.4941  -5.4912  -5.4672  -5.4375  -5.4323  -5.4197
    -5.4048  -5.3808  -5.3637  -5.3552  -5.3486  -5.3430  -5.3252  -5.3119
    -5.3086  -5.2884  -5.2826  -5.2729  -5.2640  -5.2605  -5.2433  -5.2333
    -5.2134  -5.2072  -5.1500  -5.1468  -5.1335  -5.1218  -5.1148  -5.1059
    -5.0841  -5.0752  -5.0572  -5.0516  -5.0310  -5.0088  -4.9805  -4.9569
    -4.9322  -4.8597  -4.8363  -4.8297  -4.7894  -4.7864  -4.7813  -4.7764
    -4.7719  -4.7624  -4.7452  -4.7413  -4.6991  -4.6758  -4.6678  -4.6673
    -4.6263  -4.6244  -4.6157  -4.6049  -4.5743  -4.5712  -4.4809  -4.4633
    -4.4412  -4.4304  -4.2747  -4.2588  -4.1274  -4.1209  -3.9432  -3.9418
    -3.8242  -3.7890  -3.7803  -3.7798  -3.6327  -3.6314  -3.6282  -3.6245
    -3.6167  -2.6966  -2.6899  -2.2941  -2.2619  -2.2545  -2.2389  -2.2308
    -2.2180  -2.2097  -2.1796  -2.1767  -2.1672  -2.1023  -2.0854  -2.0064
    -2.0020  -1.9713  -1.9514  -1.9447  -1.9418  -1.9222  -1.9159  -1.8985
    -1.8736  -1.8633  -1.8521  -1.8232  -1.8211  -1.8096  -1.7911  -1.7760
    -1.7335  -1.6715  -1.6621  -1.5721  -1.5692  -1.5611  -1.5545  -1.4301
    -1.3922  -1.2681  -1.2633  -1.1780  -1.0415  -1.0328  -1.0170  -0.9866
    -0.9599  -0.9221  -0.9028  -0.8685  -0.8675  -0.8514  -0.8499  -0.5370
    -0.5368  -0.4934  -0.4804  -0.4460  -0.4395  -0.4350  -0.4294  -0.4270
    -0.4180  -0.3784  -0.3669  -0.3524  -0.3021  -0.2982  -0.2969  -0.2965
    -0.2950  -0.2835  -0.0616  -0.0487   0.0199   0.0700   0.0949   0.3073
     0.3129   0.3346   0.3400   0.6009   0.6171   0.6907   0.7091   0.7859
     0.7872   0.7926   0.7933   0.8048   0.8058   0.8257   0.8475   0.9066
     0.9261   0.9322   1.0107   1.0264   1.1095   1.1329   1.1783   1.1785
     1.1870   1.1878   1.1963   1.1980   1.1999   1.2281   1.2356   1.2844
     1.2937   1.4052   1.4293   1.4479   1.5132   1.5839   1.6306   1.6448
     1.6491   1.7184   1.7776   1.8395   1.8611   1.9111   1.9272   2.0465
     2.0642   2.0739   2.0892   2.0968   2.1424   2.1479   2.2310   2.2484

     occupation numbers 
     1.0000   1.0000   1.0000   1.0000   1.0000   1.0000   1.0000   1.0000
     1.0000   1.0000   1.0000   1.0000   1.0000   1.0000   1.0000   1.0000
     1.0000   1.0000   1.0000   1.0000   1.0000   1.0000   1.0000   1.0000
     1.0000   1.0000   1.0000   1.0000   1.0000   1.0000   1.0000   1.0000
     1.0000   1.0000   1.0000   1.0000   1.0000   1.0000   1.0000   1.0000
     1.0000   1.0000   1.0000   1.0000   1.0000   1.0000   1.0000   1.0000
     1.0000   1.0000   1.0000   1.0000   1.0000   1.0000   1.0000   1.0000
     1.0000   1.0000   1.0000   1.0000   1.0000   1.0000   1.0000   1.0000
     1.0000   1.0000   1.0000   1.0000   1.0000   1.0000   1.0000   1.0000
     1.0000   1.0000   1.0000   1.0000   1.0000   1.0000   1.0000   1.0000
     1.0000   1.0000   1.0000   1.0000   1.0000   1.0000   1.0000   1.0000
     1.0000   1.0000   1.0000   1.0000   1.0000   1.0000   1.0000   1.0000
     1.0000   1.0000   1.0000   1.0000   1.0000   1.0000   1.0000   1.0000
     1.0000   1.0000   1.0000   1.0000   1.0000   1.0000   1.0000   1.0000
     1.0000   1.0000   1.0000   1.0000   1.0000   1.0000   1.0000   1.0000
     1.0000   1.0000   1.0000   1.0000   1.0000   1.0000   1.0000   1.0000
     1.0000   1.0000   1.0000   1.0000   1.0000   1.0000   1.0000   1.0000
     1.0000   1.0000   1.0000   1.0000   1.0000   1.0000   1.0000   1.0000
     1.0000   1.0000   1.0000   1.0000   1.0000   1.0000   1.0000   1.0000
     1.0000   1.0000   1.0000   1.0000   1.0000   1.0000   1.0000   1.0000
     1.0000   1.0000   1.0000   1.0000   1.0000   1.0000   1.0000   1.0000
     1.0000   1.0000   1.0000   1.0000   1.0000   1.0000   1.0000   1.0000
     1.0000   1.0000   1.0000   1.0000   1.0000   1.0000   1.0000   1.0000
     1.0000   1.0000   1.0000   1.0000   1.0000   1.0000   1.0000   1.0000
     1.0000   1.0000   1.0000   1.0000   1.0000   1.0000   1.0000   1.0000
     1.0000   1.0000   1.0000   1.0000   1.0000   1.0000   1.0000   1.0000
     1.0000   1.0000   1.0000   1.0000   1.0000   1.0000   1.0000   1.0000
     1.0000   1.0000   1.0000   1.0000   1.0000   1.0000   1.0000   1.0000
     1.0000   1.0000   1.0000   1.0000   1.0000   1.0000   1.0000   1.0000
     1.0000   1.0000   1.0000   1.0000   1.0000   1.0000   1.0000   1.0000
     1.0000   1.0000   1.0000   1.0000   1.0000   1.0000   1.0000   1.0000
     1.0000   1.0000   1.0000   1.0000   1.0000   1.0000   1.0000   1.0000
     1.0000   1.0000   1.0000   1.0000   1.0000   1.0000   1.0000   1.0000
     1.0000   1.0000   1.0000   1.0000   1.0000   1.0000   1.0000   1.0000
     1.0000   1.0000   1.0000   1.0000   1.0000   1.0000   1.0000   1.0000
     1.0000   1.0000   1.0000   1.0000   1.0000   1.0000   1.0000   1.0000
     1.0000   1.0000   1.0000   1.0000   1.0000   1.0000   1.0000   1.0000
     1.0000   1.0000   1.0000   1.0000   1.0000   1.0000   1.0000   1.0000
     1.0000   1.0000   1.0000   1.0000   1.0000   1.0000   1.0000   1.0000
     1.0000   1.0000   1.0000   1.0000   1.0000   1.0000   1.0000   1.0000
     1.0000   1.0000   1.0000   1.0000   1.0000   1.0000   1.0000   1.0000
     1.0000   1.0000   1.0000   1.0000   1.0000   1.0000   1.0000   1.0000
     1.0000   1.0000   1.0000   1.0000   1.0000   1.0000   1.0000   1.0000
     1.0000   1.0000   1.0000   1.0000   1.0000   1.0000   1.0000   1.0000
     1.0000   1.0000   1.0000   1.0000   1.0000   1.0000   1.0000   1.0000
     1.0000   1.0000   1.0000   1.0000   1.0000   1.0000   1.0000   1.0000
     1.0000   1.0000   1.0000   1.0000   1.0000   1.0000   1.0000   1.0000
     1.0000   1.0000   1.0000   1.0000   1.0000   1.0000   1.0000   1.0000
     1.0000   1.0000   1.0000   1.0000   1.0000   1.0000   1.0000   1.0000
     1.0000   1.0000   1.0000   1.0000   1.0000   1.0000   1.0000   1.0000
     1.0000   1.0000   1.0000   1.0000   1.0000   1.0000   1.0000   1.0000
     1.0000   1.0000   1.0000   1.0000   1.0000   1.0000   1.0000   1.0000
     1.0000   1.0000   1.0000   1.0000   1.0000   1.0000   1.0000   1.0000
     1.0000   1.0000   1.0000   1.0000   1.0000   1.0000   1.0000   1.0000
     1.0000   1.0000   1.0000   1.0000   1.0000   1.0000   1.0000   1.0000
     1.0000   1.0000   1.0000   1.0000   1.0000   1.0000   1.0000   1.0000
     1.0000   1.0000   1.0000   1.0000   1.0000   1.0000   1.0000   1.0000
     1.0000   1.0000   1.0000   1.0000   1.0000   1.0000   1.0000   1.0000
     1.0000   1.0000   1.0000   1.0000   1.0000   1.0000   1.0000   1.0000
     1.0000   1.0000   1.0000   1.0000   1.0000   1.0000   1.0000   1.0000
     1.0000   1.0000   1.0000   1.0000   1.0000   1.0000   1.0000   1.0000
     1.0000   1.0000   1.0000   1.0000   1.0000   1.0000   1.0000   1.0000
     1.0000   1.0000   1.0000   1.0000   1.0000   1.0000   1.0000   1.0000
     1.0000   1.0000   1.0000   1.0000   1.0000   1.0000   1.0000   1.0000
     1.0000   1.0000   1.0000   1.0000   1.0000   1.0000   1.0000   1.0000
     1.0000   1.0000   1.0000   1.0000   1.0000   1.0000   1.0000   1.0000
     1.0000   1.0000   1.0000   1.0000   1.0000   1.0000   1.0000   1.0000
     1.0000   1.0000   1.0000   1.0000   1.0000   1.0000   1.0000   1.0000
     1.0000   1.0000   1.0000   1.0000   1.0000   1.0000   1.0000   1.0000
     1.0000   1.0000   1.0000   1.0000   1.0000   1.0000   1.0000   1.0000
     1.0000   1.0000   1.0000   1.0000   1.0000   1.0000   1.0000   1.0000
     1.0000   1.0000   1.0000   1.0000   1.0000   1.0000   1.0000   1.0000
     1.0000   1.0000   1.0000   1.0000   1.0000   1.0000   1.0000   1.0000
     1.0000   1.0000   1.0000   1.0000   1.0000   1.0000   1.0000   1.0001
     1.0001   1.0001   1.0002   1.0002   1.0003   1.0003   1.0004   1.0005
     1.0005   1.0008   1.0009   1.0010   1.0012   1.0012   1.0017   1.0019
     1.0026   1.0029   1.0065   1.0068   1.0081   1.0094   1.0103   1.0115
     1.0148   1.0164   1.0198   1.0211   1.0259   1.0318   1.0403   1.0481
     1.0567   1.0785   1.0823   1.0829   1.0803   1.0796   1.0783   1.0768
     1.0751   1.0712   1.0616   1.0590   1.0193   0.9881   0.9758   0.9750
     0.8998   0.8959   0.8773   0.8532   0.7791   0.7713   0.5259   0.4781
     0.4203   0.3930   0.1094   0.0928   0.0187   0.0171   0.0009   0.0009
     0.0001   0.0000   0.0000   0.0000   0.0000   0.0000   0.0000   0.0000
     0.0000   0.0000   0.0000   0.0000   0.0000   0.0000   0.0000   0.0000
     0.0000   0.0000   0.0000   0.0000   0.0000   0.0000   0.0000   0.0000
     0.0000   0.0000   0.0000   0.0000   0.0000   0.0000   0.0000   0.0000
     0.0000   0.0000   0.0000   0.0000   0.0000   0.0000   0.0000   0.0000
     0.0000   0.0000   0.0000   0.0000   0.0000   0.0000   0.0000   0.0000
     0.0000   0.0000   0.0000   0.0000   0.0000   0.0000   0.0000   0.0000
     0.0000   0.0000   0.0000   0.0000   0.0000   0.0000   0.0000   0.0000
     0.0000   0.0000   0.0000   0.0000   0.0000   0.0000   0.0000   0.0000
     0.0000   0.0000   0.0000   0.0000   0.0000   0.0000   0.0000   0.0000
     0.0000   0.0000   0.0000   0.0000   0.0000   0.0000   0.0000   0.0000
     0.0000   0.0000   0.0000   0.0000   0.0000   0.0000   0.0000   0.0000
     0.0000   0.0000   0.0000   0.0000   0.0000   0.0000   0.0000   0.0000
     0.0000   0.0000   0.0000   0.0000   0.0000   0.0000   0.0000   0.0000
     0.0000   0.0000   0.0000   0.0000   0.0000   0.0000   0.0000   0.0000
     0.0000   0.0000   0.0000   0.0000   0.0000   0.0000   0.0000   0.0000
     0.0000   0.0000   0.0000   0.0000   0.0000   0.0000   0.0000   0.0000
     0.0000   0.0000   0.0000   0.0000   0.0000   0.0000   0.0000   0.0000

     the Fermi energy is    -4.4335 ev

!    total energy              =  -13507.57158654 Ry
     estimated scf accuracy    <          9.8E-09 Ry
     smearing contrib. (-TS)   =       0.05209968 Ry
     internal energy E=F+TS    =  -13507.62368622 Ry

     The total energy is F=E-TS. E is the sum of the following terms:
     one-electron contribution = -353970.60333786 Ry
     hartree contribution      =  177208.88518524 Ry
     xc contribution           =   -2441.03043476 Ry
     ewald contribution        =  172084.81903896 Ry
     DFT-D3 Dispersion         =      -3.53884702 Ry
     one-center paw contrib.   =   -6386.15529077 Ry
      -> PAW hartree energy AE =       2.28993696 Ry
      -> PAW hartree energy PS =      -2.28669468 Ry
      -> PAW xc energy AE      =     -36.95022323 Ry
      -> PAW xc energy PS      =       2.29134946 Ry
      -> total E_H with PAW    =  177208.88842752 Ry
      -> total E_XC with PAW   =   -2475.68930853 Ry

     total magnetization       =     0.00 Bohr mag/cell
     absolute magnetization    =     0.00 Bohr mag/cell

     convergence has been achieved in  53 iterations

     negative rho (up, down):  5.565E-03 5.565E-03

     Forces acting on atoms (cartesian axes, Ry/au):

     atom    1 type  1   force =    -0.00000099   -0.00000262   -0.07724070
     atom    2 type  1   force =    -0.00039158   -0.00080532   -0.00535683
     atom    3 type  1   force =    -0.00060113   -0.00030944   -0.01118223
     atom    4 type  1   force =    -0.00333629   -0.00160356   -0.00493560
     atom    5 type  1   force =     0.00000358   -0.00002300    0.00331056
     atom    6 type  1   force =     0.00005840    0.00008294    0.25131268
     atom    7 type  2   force =     0.07189647    0.02075803   -0.05446567
     atom    8 type  2   force =    -0.05392434    0.05188606   -0.05446510
     atom    9 type  2   force =    -0.01797169   -0.07264268   -0.05446669
     atom   10 type  2   force =    -0.00285086   -0.00018395   -0.00030619
     atom   11 type  2   force =    -0.00113913   -0.00115522   -0.00277288
     atom   12 type  2   force =     0.00353556    0.00172460    0.00063642
     atom   13 type  2   force =    -0.00075894    0.00006832    0.00260295
     atom   14 type  2   force =     0.00039189    0.00036504    0.00262079
     atom   15 type  2   force =     0.00044442    0.00062822    0.00260238
     atom   16 type  1   force =     0.00100065    0.00127929   -0.07592674
     atom   17 type  1   force =     0.00376735    0.00200052   -0.00484568
     atom   18 type  1   force =     0.00030546   -0.00001458   -0.01210326
     atom   19 type  1   force =     0.00032843   -0.00098839   -0.00637874
     atom   20 type  1   force =     0.00531063    0.00855799    0.01469383
     atom   21 type  1   force =     0.00011935    0.00015115    0.25115873
     atom   22 type  2   force =     0.07184514    0.02055530   -0.05471454
     atom   23 type  2   force =    -0.05412219    0.05169496   -0.05489850
     atom   24 type  2   force =    -0.01803042   -0.07265713   -0.05443660
     atom   25 type  2   force =    -0.00762625    0.00230860   -0.00399422
     atom   26 type  2   force =    -0.00389896   -0.00264971    0.00139402
     atom   27 type  2   force =     0.00100326   -0.00265974   -0.00101984
     atom   28 type  2   force =    -0.00080283   -0.00137471    0.00238972
     atom   29 type  2   force =     0.00024919   -0.00059294    0.00309826
     atom   30 type  2   force =    -0.00108327   -0.00042417    0.00253159
     atom   31 type  1   force =     0.00136342    0.00002548   -0.07604528
     atom   32 type  1   force =     0.00086966    0.00008202   -0.00535525
     atom   33 type  1   force =    -0.00014269    0.00027240   -0.01211100
     atom   34 type  1   force =     0.00066668    0.00077773   -0.00638669
     atom   35 type  1   force =     0.00595487    0.00085788    0.01424436
     atom   36 type  1   force =    -0.00010164    0.00000940    0.25131490
     atom   37 type  2   force =     0.07164864    0.02089375   -0.05497807
     atom   38 type  2   force =    -0.05393996    0.05194253   -0.05459267
     atom   39 type  2   force =    -0.01813119   -0.07273885   -0.05447136
     atom   40 type  2   force =    -0.00325057    0.00218421    0.00064801
     atom   41 type  2   force =     0.00159483   -0.00237882   -0.00030423
     atom   42 type  2   force =     0.00158136   -0.00041927   -0.00276642
     atom   43 type  2   force =    -0.00201042   -0.00045359    0.00104205
     atom   44 type  2   force =     0.00159775   -0.00001302    0.00238054
     atom   45 type  2   force =    -0.00050638    0.00015292    0.00263014
     atom   46 type  1   force =     0.00061121   -0.00151388   -0.07591563
     atom   47 type  1   force =    -0.00050258    0.00071196   -0.00535945
     atom   48 type  1   force =     0.00056829   -0.00036280   -0.01118525
     atom   49 type  1   force =     0.00306372   -0.00207552   -0.00494069
     atom   50 type  1   force =     0.00478623   -0.00891030    0.01471877
     atom   51 type  1   force =     0.00004314   -0.00009271    0.25131313
     atom   52 type  2   force =     0.07182960    0.02102471   -0.05490178
     atom   53 type  2   force =    -0.05390908    0.05194440   -0.05443784
     atom   54 type  2   force =    -0.01812064   -0.07249809   -0.05471785
     atom   55 type  2   force =    -0.00044339    0.00157801   -0.00277039
     atom   56 type  2   force =    -0.00028002   -0.00391542    0.00063816
     atom   57 type  2   force =     0.00125613    0.00257024   -0.00029661
     atom   58 type  2   force =    -0.00118076    0.00185553   -0.00058745
     atom   59 type  2   force =     0.00031797   -0.00068989    0.00260683
     atom   60 type  2   force =    -0.00079136    0.00138897    0.00238185
     atom   61 type  1   force =    -0.00069939    0.00116750   -0.07604611
     atom   62 type  1   force =    -0.00102761    0.00385862   -0.00062275
     atom   63 type  1   force =     0.00003335    0.00067240   -0.01119092
     atom   64 type  1   force =     0.00028123    0.00368572   -0.00496401
     atom   65 type  1   force =    -0.00369760    0.00473030    0.01427598
     atom   66 type  1   force =     0.00003529    0.00025619    0.25056227
     atom   67 type  2   force =     0.07205972    0.02066868   -0.05447246
     atom   68 type  2   force =    -0.05391981    0.05160080   -0.05497838
     atom   69 type  2   force =    -0.01801537   -0.07268378   -0.05459145
     atom   70 type  2   force =    -0.00317189    0.00520016   -0.01196407
     atom   71 type  2   force =    -0.00545564   -0.00857588   -0.00732079
     atom   72 type  2   force =     0.00630538   -0.00524366   -0.00369597
     atom   73 type  2   force =     0.00011537   -0.00051577    0.00262990
     atom   74 type  2   force =    -0.00101749   -0.00194903   -0.00057014
     atom   75 type  2   force =     0.00054574   -0.00107789    0.00073057
     atom   76 type  1   force =     0.00000312    0.00000693   -0.07275168
     atom   77 type  1   force =     0.00386891   -0.00101771   -0.00059903
     atom   78 type  1   force =     0.00087238    0.00056364   -0.00903901
     atom   79 type  1   force =     0.00418018    0.00093061   -0.00186151
     atom   80 type  1   force =     0.00000663    0.00003691    0.03105942
     atom   81 type  1   force =     0.00020497   -0.00015717    0.25055982
     atom   82 type  2   force =     0.07198192    0.02101560   -0.05550509
     atom   83 type  2   force =    -0.05419250    0.05182791   -0.05550606
     atom   84 type  2   force =    -0.01779087   -0.07284616   -0.05550348
     atom   85 type  2   force =    -0.00469842    0.00899104   -0.00732700
     atom   86 type  2   force =    -0.00768429   -0.00282858   -0.00367635
     atom   87 type  2   force =     0.00606157    0.00012922   -0.01192507
     atom   88 type  2   force =     0.00026950   -0.00031833   -0.00125922
     atom   89 type  2   force =    -0.00121014    0.00006119    0.00072377
     atom   90 type  2   force =    -0.00041154   -0.00008682   -0.00126029
     atom   91 type  1   force =    -0.00066652   -0.00119315   -0.07603016
     atom   92 type  1   force =    -0.00014470   -0.00427355   -0.00481282
     atom   93 type  1   force =     0.00005083   -0.00103297   -0.00902292
     atom   94 type  1   force =    -0.00128597   -0.00407972   -0.00182626
     atom   95 type  1   force =    -0.00226931   -0.00559121    0.01430251
     atom   96 type  1   force =     0.00007231   -0.00017982    0.25115474
     atom   97 type  2   force =     0.07195459    0.02074258   -0.05459564
     atom   98 type  2   force =    -0.05393015    0.05207203   -0.05447484
     atom   99 type  2   force =    -0.01772691   -0.07249629   -0.05498258
     atom  100 type  2   force =    -0.00034202    0.00472079    0.00137188
     atom  101 type  2   force =    -0.00281910    0.00047704   -0.00102789
     atom  102 type  2   force =     0.00579234    0.00544582   -0.00398410
     atom  103 type  2   force =     0.00066660    0.00101351    0.00071655
     atom  104 type  2   force =     0.00016258    0.00115575    0.00252313
     atom  105 type  2   force =     0.00061430    0.00196665    0.00102394
     atom  106 type  1   force =    -0.00000216   -0.00000545   -0.07804759
     atom  107 type  1   force =    -0.00361682    0.00225012   -0.00484296
     atom  108 type  1   force =    -0.00016058   -0.00025884   -0.01210487
     atom  109 type  1   force =    -0.00098657    0.00019763   -0.00638026
     atom  110 type  1   force =    -0.00000936   -0.00002903    0.00152410
     atom  111 type  1   force =    -0.00018995    0.00002561    0.25115968
     atom  112 type  2   force =     0.07183152    0.02055840   -0.05413375
     atom  113 type  2   force =    -0.05371916    0.05192815   -0.05413358
     atom  114 type  2   force =    -0.01811243   -0.07248506   -0.05413317
     atom  115 type  2   force =     0.00181687    0.00220462   -0.00102520
     atom  116 type  2   force =     0.00181552   -0.00774757   -0.00396825
     atom  117 type  2   force =     0.00424701   -0.00204820    0.00138402
     atom  118 type  2   force =    -0.00063717    0.00009201    0.00308742
     atom  119 type  2   force =     0.00139629   -0.00151378    0.00104271
     atom  120 type  2   force =     0.00038915    0.00051709    0.00309091
     atom  121 type  1   force =    -0.00161170    0.00023316   -0.07592292
     atom  122 type  1   force =    -0.00283125   -0.00280685   -0.00059107
     atom  123 type  1   force =    -0.00092281    0.00047707   -0.00903698
     atom  124 type  1   force =    -0.00289959    0.00317478   -0.00185739
     atom  125 type  1   force =    -0.01007943    0.00034780    0.01467835
     atom  126 type  1   force =    -0.00023978   -0.00009804    0.25056017
     atom  127 type  2   force =     0.07193943    0.02071261   -0.05443678
     atom  128 type  2   force =    -0.05372435    0.05193969   -0.05471785
     atom  129 type  2   force =    -0.01770888   -0.07271764   -0.05489883
     atom  130 type  2   force =     0.00140041    0.00805074   -0.00367960
     atom  131 type  2   force =    -0.00290121   -0.00533203   -0.01190584
     atom  132 type  2   force =     0.01014557   -0.00045716   -0.00732403
     atom  133 type  2   force =     0.00091331   -0.00072574    0.00253256
     atom  134 type  2   force =     0.00013586    0.00038683   -0.00127079
     atom  135 type  2   force =     0.00219749    0.00008595   -0.00057839
     atom  136 type  3   force =    -0.00000666    0.00001917    0.00053281
     atom  137 type  4   force =     0.00024787    0.00038966   -0.00114158
     atom  138 type  4   force =     0.00005820    0.00108579    0.00078701
     atom  139 type  3   force =     0.00080283   -0.00259363   -0.00044793
     atom  140 type  4   force =    -0.00001394    0.00078386   -0.00210983
     atom  141 type  4   force =    -0.00050103    0.00041734    0.00007620
     atom  142 type  3   force =    -0.00074184   -0.00099414   -0.00045948
     atom  143 type  4   force =     0.00019687   -0.00034384   -0.00224717
     atom  144 type  4   force =     0.00010920   -0.00059680    0.00045136
     atom  145 type  3   force =    -0.00173492    0.00240727    0.00118421
     atom  146 type  4   force =     0.00004616   -0.00020089   -0.00114842
     atom  147 type  4   force =     0.00112445   -0.00061017    0.00058038
     atom  148 type  3   force =    -0.00264541    0.00062555   -0.00043762
     atom  149 type  4   force =     0.00049265    0.00119371   -0.00074417
     atom  150 type  4   force =     0.00087790    0.00036679    0.00109750
     atom  151 type  3   force =    -0.00115679   -0.00268235    0.00116920
     atom  152 type  4   force =     0.00022051    0.00016592   -0.00210389
     atom  153 type  4   force =     0.00046643    0.00037379    0.00052650
     atom  154 type  3   force =    -0.00003004   -0.00228984   -0.00002294
     atom  155 type  4   force =     0.00005920    0.00016900   -0.00290117
     atom  156 type  4   force =     0.00004491    0.00017671   -0.00080149
     atom  157 type  3   force =    -0.00194439    0.00116769   -0.00003473
     atom  158 type  4   force =     0.00056944   -0.00033066   -0.00216829
     atom  159 type  4   force =     0.00070317   -0.00011922   -0.00022253
     atom  160 type  3   force =    -0.00047724    0.00116270   -0.00046993
     atom  161 type  4   force =     0.00025786    0.00030807    0.00011804
     atom  162 type  4   force =    -0.00000596    0.00007629    0.00072762
     atom  163 type  3   force =    -0.00051843   -0.00080646   -0.00188288
     atom  164 type  4   force =     0.00027263   -0.00033884    0.00001170
     atom  165 type  4   force =     0.00021528   -0.00027518    0.00082509
     atom  166 type  3   force =     0.00121622   -0.00018822   -0.00044706
     atom  167 type  4   force =    -0.00070878   -0.00009396   -0.00229439
     atom  168 type  4   force =    -0.00028286   -0.00041544   -0.00014891
     atom  169 type  3   force =     0.00197644    0.00110918   -0.00003132
     atom  170 type  4   force =    -0.00038575    0.00012805   -0.00225697
     atom  171 type  4   force =    -0.00055639   -0.00023038    0.00038046
     atom  172 type  3   force =     0.00291010    0.00039131    0.00118580
     atom  173 type  4   force =    -0.00114091   -0.00013215   -0.00070364
     atom  174 type  4   force =    -0.00089199    0.00048534    0.00098842
     atom  175 type  3   force =     0.00092898   -0.00011935   -0.00188560
     atom  176 type  4   force =    -0.00045919    0.00032524   -0.00006825
     atom  177 type  4   force =    -0.00022704   -0.00005135    0.00085749
     atom  178 type  3   force =    -0.00042201    0.00082240   -0.00190820
     atom  179 type  4   force =     0.00060498   -0.00087473   -0.00085246
     atom  180 type  4   force =     0.00002718   -0.00119104    0.00105466
     atom  181 type  3   force =     0.00184881    0.00202145   -0.00044247
     atom  182 type  4   force =    -0.00022411    0.00015384   -0.00111127
     atom  183 type  4   force =    -0.00120562   -0.00083927    0.00064528
     atom  184 type  5   force =    -0.00028303    0.00004579    0.00158605
     atom  185 type  5   force =    -0.00043402   -0.00012179    0.00138784
     atom  186 type  5   force =    -0.00027733   -0.00014296    0.00123773
     atom  187 type  5   force =    -0.00009987    0.00010589    0.00124132
     atom  188 type  5   force =     0.00011228    0.00044638    0.00138230
     atom  189 type  5   force =     0.00000622    0.00010167    0.00163257
     atom  190 type  5   force =    -0.00008168   -0.00003990    0.00163757
     atom  191 type  5   force =    -0.00022622   -0.00032383    0.00137844
     atom  192 type  5   force =     0.00003152   -0.00026112    0.00131276
     atom  193 type  5   force =     0.00020979    0.00013662    0.00154174
     atom  194 type  5   force =     0.00016986    0.00023844    0.00158154
     atom  195 type  5   force =     0.00006897   -0.00005112    0.00163617
     atom  196 type  5   force =     0.00011120   -0.00028392    0.00158634
     atom  197 type  5   force =     0.00005980   -0.00043886    0.00133957
     atom  198 type  5   force =     0.00006327   -0.00004085    0.00146213
     atom  199 type  5   force =     0.00034096    0.00027224    0.00133637
     atom  200 type  5   force =     0.00037614   -0.00004478    0.00137981
     atom  201 type  5   force =     0.00031756   -0.00033647    0.00138834
     atom  202 type  5   force =     0.00000695   -0.00026170    0.00154463
     atom  203 type  5   force =    -0.00007024   -0.00001918    0.00145870
     atom  204 type  5   force =     0.00001493    0.00009291    0.00146775
     atom  205 type  5   force =     0.00021025    0.00015484    0.00131633
     atom  206 type  5   force =     0.00025173   -0.00019189    0.00124337
     atom  207 type  5   force =     0.00014087    0.00001804    0.00123798
     atom  208 type  5   force =    -0.00022996    0.00010948    0.00131062
     atom  209 type  5   force =    -0.00039491    0.00018418    0.00133647
     atom  210 type  5   force =    -0.00021300    0.00012590    0.00154525
     atom  211 type  5   force =    -0.00004471   -0.00014891    0.00124355
     atom  212 type  5   force =    -0.00000408   -0.00000976    0.00114598
     atom  213 type  5   force =     0.00002022    0.00030826    0.00123655
     atom  214 type  5   force =    -0.00014772    0.00037132    0.00138067
     atom  215 type  6   force =    -0.00013419   -0.00009641   -0.00136874
     atom  216 type  6   force =     0.00013837   -0.00025911   -0.00121418
     atom  217 type  6   force =     0.00027853   -0.00063401   -0.00096754
     atom  218 type  6   force =     0.00033214   -0.00021231   -0.00104935
     atom  219 type  6   force =     0.00039994    0.00055883   -0.00096504
     atom  220 type  6   force =    -0.00001793    0.00012386   -0.00068848
     atom  221 type  6   force =    -0.00024862   -0.00041034   -0.00088675
     atom  222 type  6   force =    -0.00018565   -0.00034618   -0.00073797
     atom  223 type  6   force =    -0.00034274   -0.00019010   -0.00105265
     atom  224 type  6   force =     0.00001295    0.00039683   -0.00104878
     atom  225 type  6   force =     0.00038446    0.00035522   -0.00082114
     atom  226 type  6   force =     0.00005956   -0.00022268   -0.00105255
     atom  227 type  6   force =    -0.00017895   -0.00004016   -0.00091269
     atom  228 type  6   force =    -0.00049249    0.00015760   -0.00082637
     atom  229 type  6   force =    -0.00067541    0.00008041   -0.00097042
     atom  230 type  6   force =    -0.00019889    0.00034671   -0.00073047
     atom  231 type  6   force =     0.00005773    0.00016508   -0.00090758
     atom  232 type  6   force =    -0.00000396   -0.00001613   -0.00106892
     atom  233 type  6   force =     0.00015366    0.00015586   -0.00105348
     atom  234 type  6   force =    -0.00009415   -0.00006491   -0.00068547
     atom  235 type  6   force =    -0.00028688    0.00003427   -0.00121370
     atom  236 type  6   force =    -0.00022884    0.00042621   -0.00089171
     atom  237 type  6   force =    -0.00022492    0.00003776   -0.00106373
     atom  238 type  6   force =     0.00011032   -0.00015157   -0.00090895
     atom  239 type  6   force =     0.00047646   -0.00000747   -0.00089225
     atom  240 type  6   force =     0.00016378   -0.00004928   -0.00136913
     atom  241 type  6   force =    -0.00001683    0.00018629   -0.00137329
     atom  242 type  6   force =     0.00011159   -0.00005197   -0.00067618
     atom  243 type  6   force =     0.00010411   -0.00052375   -0.00082640
     atom  244 type  6   force =     0.00038601    0.00000262   -0.00073624
     atom  245 type  6   force =     0.00015765    0.00025488   -0.00121440
     The non-local contrib.  to forces
     atom    1 type  1   force =     0.00000150    0.00000062   -0.06899342
     atom    2 type  1   force =    -0.00006301    0.00044700   -0.04630794
     atom    3 type  1   force =     0.00027783    0.00008811    0.07633333
     atom    4 type  1   force =     0.00163710    0.00136830   -0.07824585
     atom    5 type  1   force =    -0.00000560    0.00000821    0.09420871
     atom    6 type  1   force =     0.00011924    0.00015995   -0.19567105
     atom    7 type  2   force =     0.58294677    0.08909545    0.01517489
     atom    8 type  2   force =    -0.36863162    0.46031436    0.01518056
     atom    9 type  2   force =    -0.21431930   -0.54939719    0.01517064
     atom   10 type  2   force =     0.47488776   -0.42465033   -0.67627372
     atom   11 type  2   force =     0.11891597    0.62114471   -0.67968885
     atom   12 type  2   force =    -0.59264036   -0.19780502   -0.67311267
     atom   13 type  2   force =     0.10167157    0.13185955    0.05006085
     atom   14 type  2   force =    -0.16442272    0.02770474    0.04985691
     atom   15 type  2   force =     0.06338397   -0.15395976    0.05005451
     atom   16 type  1   force =    -0.00060282   -0.00086800   -0.06923126
     atom   17 type  1   force =    -0.00210388   -0.00064591   -0.04684753
     atom   18 type  1   force =    -0.00016547   -0.00003670    0.07660267
     atom   19 type  1   force =     0.00015648    0.00049993   -0.07737421
     atom   20 type  1   force =    -0.00067965   -0.00147558    0.08965000
     atom   21 type  1   force =    -0.00026589   -0.00000209   -0.19551507
     atom   22 type  2   force =     0.58205325    0.08663938    0.01388562
     atom   23 type  2   force =    -0.37011055    0.45879080    0.01262350
     atom   24 type  2   force =    -0.21501306   -0.55009304    0.01547850
     atom   25 type  2   force =     0.45068932   -0.41592342   -0.69785687
     atom   26 type  2   force =     0.10870770    0.61561800   -0.66744060
     atom   27 type  2   force =    -0.60570776   -0.21279973   -0.67625272
     atom   28 type  2   force =     0.10151137    0.12411839    0.04815986
     atom   29 type  2   force =    -0.16607015    0.02270257    0.05233165
     atom   30 type  2   force =     0.05561625   -0.15902527    0.04965680
     atom   31 type  1   force =    -0.00054037    0.00003587   -0.06923266
     atom   32 type  1   force =    -0.00034846   -0.00028509   -0.04630898
     atom   33 type  1   force =     0.00011751   -0.00012421    0.07660519
     atom   34 type  1   force =    -0.00049709   -0.00011303   -0.07737118
     atom   35 type  1   force =    -0.00201425   -0.00044207    0.09017206
     atom   36 type  1   force =    -0.00019728    0.00002172   -0.19567183
     atom   37 type  2   force =     0.57841067    0.08820076    0.01143867
     atom   38 type  2   force =    -0.37097028    0.46119420    0.01507658
     atom   39 type  2   force =    -0.21653197   -0.55058693    0.01560315
     atom   40 type  2   force =     0.46767530   -0.41440798   -0.67304653
     atom   41 type  2   force =     0.13040212    0.62360534   -0.67635541
     atom   42 type  2   force =    -0.59732853   -0.20763193   -0.67965363
     atom   43 type  2   force =     0.09499768    0.12760813    0.04162633
     atom   44 type  2   force =    -0.15821600    0.02582957    0.04811044
     atom   45 type  2   force =     0.05825122   -0.15626943    0.04990372
     atom   46 type  1   force =    -0.00045109    0.00095855   -0.06923458
     atom   47 type  1   force =     0.00041753   -0.00015963   -0.04630785
     atom   48 type  1   force =    -0.00021325    0.00019585    0.07633404
     atom   49 type  1   force =    -0.00200842    0.00073146   -0.07824515
     atom   50 type  1   force =    -0.00094758    0.00133756    0.08968318
     atom   51 type  1   force =     0.00007831   -0.00018239   -0.19567171
     atom   52 type  2   force =     0.58236301    0.09113220    0.01259902
     atom   53 type  2   force =    -0.36889459    0.46127456    0.01547708
     atom   54 type  2   force =    -0.21599979   -0.54738313    0.01386653
     atom   55 type  2   force =     0.47838756   -0.41346577   -0.67962204
     atom   56 type  2   force =     0.12496871    0.61218628   -0.67306733
     atom   57 type  2   force =    -0.60527716   -0.19886956   -0.67631573
     atom   58 type  2   force =     0.09979884    0.13860859    0.03502811
     atom   59 type  2   force =    -0.16504709    0.02213048    0.05007733
     atom   60 type  2   force =     0.05671721   -0.14993659    0.04811740
     atom   61 type  1   force =     0.00023668   -0.00048472   -0.06923203
     atom   62 type  1   force =    -0.00009799   -0.00167388   -0.04828576
     atom   63 type  1   force =    -0.00006231   -0.00028123    0.07633631
     atom   64 type  1   force =     0.00036619   -0.00210025   -0.07824250
     atom   65 type  1   force =     0.00138718   -0.00152334    0.09014973
     atom   66 type  1   force =     0.00007660   -0.00030240   -0.19474757
     atom   67 type  2   force =     0.58508681    0.08777762    0.01559951
     atom   68 type  2   force =    -0.36559376    0.45681537    0.01144231
     atom   69 type  2   force =    -0.21392652   -0.55186376    0.01508430
     atom   70 type  2   force =     0.47289782   -0.40439077   -0.72967946
     atom   71 type  2   force =     0.10147351    0.59141523   -0.71431932
     atom   72 type  2   force =    -0.58450216   -0.22895047   -0.69678394
     atom   73 type  2   force =     0.10617886    0.12857892    0.04990337
     atom   74 type  2   force =    -0.16995836    0.01713038    0.03511025
     atom   75 type  2   force =     0.06278129   -0.16232675    0.04140405
     atom   76 type  1   force =    -0.00000202   -0.00000294   -0.07001348
     atom   77 type  1   force =    -0.00140775    0.00091183   -0.04829160
     atom   78 type  1   force =    -0.00036660   -0.00024963    0.07554598
     atom   79 type  1   force =    -0.00189664   -0.00080775   -0.07909676
     atom   80 type  1   force =     0.00000085   -0.00001032    0.07817467
     atom   81 type  1   force =    -0.00029850    0.00008470   -0.19474457
     atom   82 type  2   force =     0.58276736    0.08830302    0.01033752
     atom   83 type  2   force =    -0.36785807    0.46051434    0.01032458
     atom   84 type  2   force =    -0.21490133   -0.54885351    0.01034314
     atom   85 type  2   force =     0.46148478   -0.38371581   -0.71447431
     atom   86 type  2   force =     0.09398749    0.62074174   -0.69679346
     atom   87 type  2   force =    -0.58679151   -0.20742643   -0.72955479
     atom   88 type  2   force =     0.10636833    0.12679513    0.03113330
     atom   89 type  2   force =    -0.17199155    0.02677272    0.04137571
     atom   90 type  2   force =     0.05662079   -0.15557791    0.03113099
     atom   91 type  1   force =     0.00030500    0.00044825   -0.06923575
     atom   92 type  1   force =     0.00048861    0.00214697   -0.04685525
     atom   93 type  1   force =    -0.00003146    0.00044159    0.07553969
     atom   94 type  1   force =     0.00024933    0.00204631   -0.07910427
     atom   95 type  1   force =     0.00063129    0.00196851    0.09017374
     atom   96 type  1   force =     0.00013069    0.00023307   -0.19551121
     atom   97 type  2   force =     0.58489641    0.09066431    0.01506085
     atom   98 type  2   force =    -0.36854457    0.46281628    0.01558468
     atom   99 type  2   force =    -0.21280736   -0.54501855    0.01141931
     atom  100 type  2   force =     0.47884256   -0.40185969   -0.66760787
     atom  101 type  2   force =     0.11848363    0.63109359   -0.67639112
     atom  102 type  2   force =    -0.58565887   -0.18234964   -0.69790582
     atom  103 type  2   force =     0.10921632    0.13552832    0.04133691
     atom  104 type  2   force =    -0.16558227    0.03138399    0.04961636
     atom  105 type  2   force =     0.06301350   -0.14607156    0.04153820
     atom  106 type  1   force =    -0.00000004    0.00000327   -0.06867489
     atom  107 type  1   force =     0.00161089   -0.00149317   -0.04684633
     atom  108 type  1   force =     0.00004836    0.00016585    0.07660327
     atom  109 type  1   force =     0.00034045   -0.00037658   -0.07737448
     atom  110 type  1   force =     0.00000804    0.00001009    0.09310997
     atom  111 type  1   force =     0.00013741   -0.00023066   -0.19551553
     atom  112 type  2   force =     0.58296376    0.08922344    0.01647260
     atom  113 type  2   force =    -0.36874043    0.46025540    0.01647813
     atom  114 type  2   force =    -0.21421558   -0.54945429    0.01647179
     atom  115 type  2   force =     0.48722005   -0.41812655   -0.67629264
     atom  116 type  2   force =     0.13488620    0.59831712   -0.69774496
     atom  117 type  2   force =    -0.58748264   -0.21366063   -0.66750777
     atom  118 type  2   force =     0.10269700    0.13251709    0.05228500
     atom  119 type  2   force =    -0.15802116    0.01847403    0.04162887
     atom  120 type  2   force =     0.06337539   -0.15514031    0.05229737
     atom  121 type  1   force =     0.00105398   -0.00009075   -0.06923207
     atom  122 type  1   force =     0.00149841    0.00074733   -0.04829417
     atom  123 type  1   force =     0.00039893   -0.00019324    0.07554556
     atom  124 type  1   force =     0.00165411   -0.00124569   -0.07909886
     atom  125 type  1   force =     0.00162550    0.00013827    0.08967636
     atom  126 type  1   force =     0.00022339    0.00021467   -0.19474369
     atom  127 type  2   force =     0.58391802    0.08882977    0.01548246
     atom  128 type  2   force =    -0.36604347    0.46073684    0.01386513
     atom  129 type  2   force =    -0.21226562   -0.54992387    0.01261728
     atom  130 type  2   force =     0.49061450   -0.39186674   -0.69680462
     atom  131 type  2   force =     0.11383896    0.61182438   -0.72958218
     atom  132 type  2   force =    -0.56298127   -0.20794485   -0.71440574
     atom  133 type  2   force =     0.10993146    0.12767831    0.04965800
     atom  134 type  2   force =    -0.16301305    0.02869085    0.03107915
     atom  135 type  2   force =     0.07015017   -0.15578980    0.03507163
     atom  136 type  3   force =     0.00004487    0.00001990    0.00591657
     atom  137 type  4   force =     0.00086928   -0.00114686   -0.29287916
     atom  138 type  4   force =    -0.00347834   -0.01153668    0.28935527
     atom  139 type  3   force =    -0.00082151   -0.00206132    0.00570145
     atom  140 type  4   force =    -0.00168657   -0.00349220   -0.28930317
     atom  141 type  4   force =    -0.00073263   -0.01232937    0.24853169
     atom  142 type  3   force =    -0.00324850   -0.00056021    0.00630407
     atom  143 type  4   force =    -0.00443540    0.00080001   -0.29417127
     atom  144 type  4   force =    -0.00416765    0.00305192    0.24339399
     atom  145 type  3   force =    -0.00263572   -0.00100508    0.00136913
     atom  146 type  4   force =    -0.00166477    0.00029193   -0.29305621
     atom  147 type  4   force =    -0.00798052    0.00876119    0.28925141
     atom  148 type  3   force =    -0.00155729    0.00181092    0.00549656
     atom  149 type  4   force =    -0.00134861    0.00054804   -0.29970859
     atom  150 type  4   force =    -0.00121199   -0.00645058    0.28957881
     atom  151 type  3   force =     0.00204043   -0.00184584    0.00145523
     atom  152 type  4   force =     0.00159277   -0.00448286   -0.29400629
     atom  153 type  4   force =    -0.00072653   -0.00526599    0.24339458
     atom  154 type  3   force =    -0.00014934   -0.00314613    0.00577232
     atom  155 type  4   force =     0.00007094    0.00029543   -0.28480860
     atom  156 type  4   force =     0.00003093    0.00010815    0.20374410
     atom  157 type  3   force =    -0.00260316    0.00157391    0.00561852
     atom  158 type  4   force =    -0.00231815    0.00341054   -0.28941871
     atom  159 type  4   force =    -0.01008074    0.00622167    0.24830673
     atom  160 type  3   force =     0.00105985    0.00305429    0.00606947
     atom  161 type  4   force =    -0.00038728    0.00166598   -0.29990697
     atom  162 type  4   force =    -0.00085486    0.00208333    0.29021133
     atom  163 type  3   force =    -0.00146087    0.00050697    0.01176692
     atom  164 type  4   force =     0.00181336   -0.00045356   -0.29992807
     atom  165 type  4   force =     0.00239329   -0.00074792    0.29026575
     atom  166 type  3   force =     0.00213350   -0.00247495    0.00640717
     atom  167 type  4   force =     0.00382846    0.00075941   -0.28958986
     atom  168 type  4   force =     0.01070174    0.00560748    0.24833076
     atom  169 type  3   force =     0.00279453    0.00136170    0.00560242
     atom  170 type  4   force =     0.00287362    0.00378702   -0.29407868
     atom  171 type  4   force =     0.00488526    0.00133977    0.24329967
     atom  172 type  3   force =     0.00064239    0.00265985    0.00124770
     atom  173 type  4   force =     0.00043094   -0.00130804   -0.29978144
     atom  174 type  4   force =     0.00600872    0.00213864    0.28954778
     atom  175 type  3   force =     0.00037254   -0.00141840    0.01178252
     atom  176 type  4   force =    -0.00132177   -0.00080697   -0.29991261
     atom  177 type  4   force =    -0.00156873   -0.00191218    0.29021832
     atom  178 type  3   force =     0.00115500    0.00113458    0.01142585
     atom  179 type  4   force =     0.00083860    0.00111281   -0.29984142
     atom  180 type  4   force =    -0.00475257    0.00372813    0.28966400
     atom  181 type  3   force =     0.00223709    0.00032336    0.00545511
     atom  182 type  4   force =     0.00092407    0.00162738   -0.29295748
     atom  183 type  4   force =     0.01143445    0.00227116    0.28937683
     atom  184 type  5   force =    -0.00070408   -0.00077526   -0.00044484
     atom  185 type  5   force =    -0.00119374    0.00083982   -0.00020284
     atom  186 type  5   force =    -0.00090903   -0.00026680    0.00045654
     atom  187 type  5   force =    -0.00012785   -0.00030107   -0.00142769
     atom  188 type  5   force =     0.00131355    0.00062640   -0.00021712
     atom  189 type  5   force =     0.00054345    0.00007044   -0.00187204
     atom  190 type  5   force =    -0.00031292    0.00045191   -0.00186331
     atom  191 type  5   force =    -0.00085710   -0.00000162    0.00368764
     atom  192 type  5   force =    -0.00096314   -0.00079535    0.00195050
     atom  193 type  5   force =    -0.00055513    0.00014114   -0.00187048
     atom  194 type  5   force =    -0.00033478    0.00101555   -0.00043304
     atom  195 type  5   force =    -0.00023341   -0.00049589   -0.00186262
     atom  196 type  5   force =     0.00103461   -0.00023543   -0.00043555
     atom  197 type  5   force =     0.00096978   -0.00042402    0.00141950
     atom  198 type  5   force =    -0.00002058   -0.00032261   -0.00204337
     atom  199 type  5   force =    -0.00012102    0.00105105    0.00143181
     atom  200 type  5   force =     0.00041818   -0.00076149    0.00368040
     atom  201 type  5   force =    -0.00013679   -0.00146577   -0.00021647
     atom  202 type  5   force =     0.00038034    0.00040968   -0.00186539
     atom  203 type  5   force =    -0.00027219    0.00018810   -0.00203087
     atom  204 type  5   force =     0.00030638    0.00014824   -0.00204920
     atom  205 type  5   force =     0.00117499   -0.00045281    0.00195031
     atom  206 type  5   force =     0.00067756   -0.00067699    0.00043609
     atom  207 type  5   force =    -0.00019918    0.00025698   -0.00141624
     atom  208 type  5   force =    -0.00019731    0.00123188    0.00195856
     atom  209 type  5   force =    -0.00084558   -0.00062113    0.00142976
     atom  210 type  5   force =     0.00016643   -0.00054257   -0.00187177
     atom  211 type  5   force =     0.00032547    0.00003201   -0.00142472
     atom  212 type  5   force =    -0.00000121   -0.00000626   -0.00285272
     atom  213 type  5   force =     0.00023168    0.00091992    0.00044423
     atom  214 type  5   force =     0.00044983    0.00075962    0.00366238
     atom  215 type  6   force =    -0.00025553   -0.00044882   -0.00294606
     atom  216 type  6   force =    -0.00006118   -0.00030536   -0.00524512
     atom  217 type  6   force =     0.00086521    0.00069388   -0.01380641
     atom  218 type  6   force =    -0.00018637    0.00055711   -0.00228160
     atom  219 type  6   force =    -0.00104865    0.00040352   -0.01389482
     atom  220 type  6   force =    -0.00029440   -0.00013269   -0.01809125
     atom  221 type  6   force =    -0.00048027   -0.00066178   -0.00128806
     atom  222 type  6   force =     0.00018971    0.00041620    0.00527384
     atom  223 type  6   force =     0.00056906   -0.00012614   -0.00232022
     atom  224 type  6   force =    -0.00039227   -0.00044134   -0.00231517
     atom  225 type  6   force =    -0.00025551    0.00075420   -0.01824264
     atom  226 type  6   force =    -0.00042073    0.00078451   -0.01373110
     atom  227 type  6   force =    -0.00139226    0.00064644   -0.00080780
     atom  228 type  6   force =    -0.00050578   -0.00060055   -0.01826960
     atom  229 type  6   force =     0.00017997   -0.00110345   -0.01388320
     atom  230 type  6   force =     0.00026327   -0.00035775    0.00532558
     atom  231 type  6   force =     0.00125523    0.00088636   -0.00077386
     atom  232 type  6   force =     0.00000178   -0.00000837    0.00045759
     atom  233 type  6   force =    -0.00045600   -0.00077310   -0.01375884
     atom  234 type  6   force =     0.00028149   -0.00017747   -0.01803056
     atom  235 type  6   force =    -0.00023331    0.00022078   -0.00525628
     atom  236 type  6   force =    -0.00034439    0.00075128   -0.00140937
     atom  237 type  6   force =     0.00087708   -0.00003646   -0.01387711
     atom  238 type  6   force =     0.00013991   -0.00155675   -0.00074782
     atom  239 type  6   force =     0.00082766   -0.00008341   -0.00136604
     atom  240 type  6   force =     0.00053124    0.00001551   -0.00292298
     atom  241 type  6   force =    -0.00026162    0.00045347   -0.00298548
     atom  242 type  6   force =     0.00001544    0.00031710   -0.01790352
     atom  243 type  6   force =     0.00076500   -0.00016214   -0.01821738
     atom  244 type  6   force =    -0.00046066   -0.00004407    0.00528448
     atom  245 type  6   force =     0.00029382    0.00010592   -0.00532146
     The ionic contribution  to forces
     atom    1 type  1   force =    -0.00000979   -0.00027376  -48.77692343
     atom    2 type  1   force =     0.00844325   -0.00579154  -27.24220644
     atom    3 type  1   force =     0.00189882    0.00111962  -55.00407179
     atom    4 type  1   force =     0.00232187    0.00137869  -23.27576317
     atom    5 type  1   force =     0.00005588   -0.00130647  -11.26353938
     atom    6 type  1   force =     0.00072025   -0.00057120  -72.68637151
     atom    7 type  2   force =     0.21491495    0.12012339 -128.92457046
     atom    8 type  2   force =    -0.21172866    0.12549340 -128.92480177
     atom    9 type  2   force =    -0.00322287   -0.24635553 -128.92445171
     atom   10 type  2   force =    -0.44289867    0.11907346  -24.04550569
     atom   11 type  2   force =     0.08530691   -0.38035520  -24.13762283
     atom   12 type  2   force =     0.35750477    0.25139373  -24.00407186
     atom   13 type  2   force =    -1.26528637   -0.37905319  -77.56023382
     atom   14 type  2   force =     0.96968283   -0.90377982  -77.57227475
     atom   15 type  2   force =     0.30429245    1.28439726  -77.56043839
     atom   16 type  1   force =     0.00076873   -0.00257502  -48.78301220
     atom   17 type  1   force =     0.00246056    0.00163408  -27.26114499
     atom   18 type  1   force =     0.00116953   -0.00096703  -55.00696615
     atom   19 type  1   force =     0.00083308   -0.00086243  -23.27776308
     atom   20 type  1   force =    -0.02615616   -0.05765836  -11.34383232
     atom   21 type  1   force =    -0.00001549    0.00004340  -72.68796525
     atom   22 type  2   force =     0.21717918    0.11718169 -128.92929397
     atom   23 type  2   force =    -0.21247157    0.12643833 -128.93118578
     atom   24 type  2   force =    -0.00241688   -0.25010368 -128.92865405
     atom   25 type  2   force =    -0.42598904    0.19905105  -24.06227094
     atom   26 type  2   force =     0.02218603   -0.36808496  -24.03111696
     atom   27 type  2   force =     0.34883531    0.14906382  -24.11943152
     atom   28 type  2   force =    -1.25741525   -0.39346011  -77.56763790
     atom   29 type  2   force =     0.96115137   -0.89688209  -77.57935935
     atom   30 type  2   force =     0.30074459    1.27846956  -77.57696482
     atom   31 type  1   force =    -0.00161871    0.00230130  -48.78237731
     atom   32 type  1   force =    -0.00025579    0.01031815  -27.24157580
     atom   33 type  1   force =    -0.00001573    0.00164861  -55.00694108
     atom   34 type  1   force =    -0.00060365    0.00169716  -23.27762627
     atom   35 type  1   force =    -0.05428749    0.00895613  -11.33903621
     atom   36 type  1   force =    -0.00000293    0.00091690  -72.68628422
     atom   37 type  2   force =     0.21498177    0.12188428 -128.93049140
     atom   38 type  2   force =    -0.21422804    0.13014191 -128.92693335
     atom   39 type  2   force =    -0.00491424   -0.24590175 -128.93018325
     atom   40 type  2   force =    -0.39923964    0.18463464  -24.00430766
     atom   41 type  2   force =     0.11440403   -0.44488314  -24.04197436
     atom   42 type  2   force =     0.28367922    0.26589418  -24.13515751
     atom   43 type  2   force =    -1.26325969   -0.38129175  -77.57957741
     atom   44 type  2   force =     0.96834195   -0.89206066  -77.56580222
     atom   45 type  2   force =     0.29659185    1.29222387  -77.57222689
     atom   46 type  1   force =    -0.00247257    0.00027676  -48.78228323
     atom   47 type  1   force =    -0.00829009   -0.00601868  -27.24215171
     atom   48 type  1   force =    -0.00194284    0.00110264  -55.00411155
     atom   49 type  1   force =    -0.00249596    0.00141717  -23.27595945
     atom   50 type  1   force =    -0.03602120    0.04934477  -11.34038471
     atom   51 type  1   force =    -0.00072161   -0.00055067  -72.68637088
     atom   52 type  2   force =     0.21564612    0.12055351 -128.93041446
     atom   53 type  2   force =    -0.21507369    0.12654642 -128.92831231
     atom   54 type  2   force =    -0.00696011   -0.24674480 -128.92845640
     atom   55 type  2   force =    -0.36929942    0.11089749  -24.13563398
     atom   56 type  2   force =     0.04183607   -0.44027537  -24.00839823
     atom   57 type  2   force =     0.32796460    0.31962625  -24.04262898
     atom   58 type  2   force =    -1.26461873   -0.38217219  -77.57971147
     atom   59 type  2   force =     0.96092328   -0.90749483  -77.56131488
     atom   60 type  2   force =     0.28897184    1.28435922  -77.56592636
     atom   61 type  1   force =    -0.00082394   -0.00246437  -48.78280762
     atom   62 type  1   force =     0.00117777   -0.00436993  -27.25343172
     atom   63 type  1   force =     0.00003504   -0.00250575  -55.00459381
     atom   64 type  1   force =     0.00012195   -0.00391667  -23.27777575
     atom   65 type  1   force =     0.02106464   -0.05122676  -11.34119945
     atom   66 type  1   force =     0.00002261   -0.00073283  -72.68792961
     atom   67 type  2   force =     0.21573878    0.11878796 -128.93036513
     atom   68 type  2   force =    -0.21264884    0.12558224 -128.93093845
     atom   69 type  2   force =    -0.00534677   -0.25077744 -128.92745509
     atom   70 type  2   force =    -0.42561203    0.23705496  -24.18875630
     atom   71 type  2   force =     0.01447033   -0.44331757  -24.04780162
     atom   72 type  2   force =     0.41181816    0.17831842  -24.03959735
     atom   73 type  2   force =    -1.26634626   -0.38962232  -77.57302291
     atom   74 type  2   force =     0.96333257   -0.90370234  -77.58239932
     atom   75 type  2   force =     0.29660919    1.27369019  -77.57312939
     atom   76 type  1   force =     0.00004015    0.00043317  -48.78523220
     atom   77 type  1   force =    -0.00456721    0.00218723  -27.25151074
     atom   78 type  1   force =    -0.00053685    0.00005487  -55.00825338
     atom   79 type  1   force =    -0.00028782    0.00263280  -23.27936515
     atom   80 type  1   force =     0.00025755    0.00229047  -11.45546893
     atom   81 type  1   force =    -0.00067244    0.00046908  -72.68769273
     atom   82 type  2   force =     0.21771056    0.12100858 -128.93172604
     atom   83 type  2   force =    -0.21322630    0.12852290 -128.93152471
     atom   84 type  2   force =    -0.00439071   -0.24839734 -128.93204896
     atom   85 type  2   force =    -0.39378457    0.21407124  -24.04162754
     atom   86 type  2   force =    -0.04951290   -0.44604972  -24.03190673
     atom   87 type  2   force =     0.41682410    0.25492276  -24.18453447
     atom   88 type  2   force =    -1.25911706   -0.38610797  -77.58117499
     atom   89 type  2   force =     0.95523191   -0.89309734  -77.57096163
     atom   90 type  2   force =     0.29426055    1.28557315  -77.58044963
     atom   91 type  1   force =     0.00244564    0.00013157  -48.78209937
     atom   92 type  1   force =    -0.00018830   -0.00389980  -27.25999146
     atom   93 type  1   force =     0.00008385    0.00058441  -55.00771857
     atom   94 type  1   force =     0.00150910   -0.00063372  -23.27723310
     atom   95 type  1   force =     0.03330525    0.04155899  -11.33801548
     atom   96 type  1   force =     0.00000777   -0.00013464  -72.68780507
     atom   97 type  2   force =     0.21955714    0.12026974 -128.92688128
     atom   98 type  2   force =    -0.21085269    0.12693058 -128.92989646
     atom   99 type  2   force =    -0.00229229   -0.24694890 -128.93007239
     atom  100 type  2   force =    -0.33298957    0.16244642  -24.02925921
     atom  101 type  2   force =    -0.04444357   -0.38053976  -24.11751371
     atom  102 type  2   force =     0.38392558    0.26665238  -24.05570634
     atom  103 type  2   force =    -1.25177886   -0.38041915  -77.57044174
     atom  104 type  2   force =     0.95723676   -0.90126107  -77.57558466
     atom  105 type  2   force =     0.30043487    1.28426976  -77.57781258
     atom  106 type  1   force =    -0.00001663   -0.00012980  -48.78409011
     atom  107 type  1   force =    -0.00237545    0.00193908  -27.26108485
     atom  108 type  1   force =    -0.00118224   -0.00093836  -55.00694945
     atom  109 type  1   force =    -0.00027774   -0.00179338  -23.27770651
     atom  110 type  1   force =    -0.00010140   -0.00058186  -11.28583401
     atom  111 type  1   force =     0.00000474    0.00004020  -72.68794873
     atom  112 type  2   force =     0.21720135    0.11983826 -128.93107971
     atom  113 type  2   force =    -0.21254067    0.12825437 -128.93106353
     atom  114 type  2   force =    -0.00471388   -0.24844814 -128.93090298
     atom  115 type  2   force =    -0.30447845    0.22849429  -24.11923311
     atom  116 type  2   force =     0.04139008   -0.46385230  -24.06042261
     atom  117 type  2   force =     0.31042395    0.20404881  -24.03249992
     atom  118 type  2   force =    -1.25780321   -0.38483948  -77.57889844
     atom  119 type  2   force =     0.96283533   -0.90220565  -77.57998605
     atom  120 type  2   force =     0.29652253    1.28068906  -77.57934427
     atom  121 type  1   force =     0.00168978    0.00229176  -48.78247668
     atom  122 type  1   force =     0.00358080    0.00401212  -27.25125072
     atom  123 type  1   force =     0.00049650   -0.00004365  -55.00819880
     atom  124 type  1   force =    -0.00111333    0.00019883  -23.27913622
     atom  125 type  1   force =     0.06189302    0.00798479  -11.34131466
     atom  126 type  1   force =     0.00067647    0.00048214  -72.68766973
     atom  127 type  2   force =     0.21745400    0.12319839 -128.92830024
     atom  128 type  2   force =    -0.21021027    0.12967723 -128.92850704
     atom  129 type  2   force =    -0.00317537   -0.24675714 -128.93088642
     atom  130 type  2   force =    -0.36196690    0.26887029  -24.03182333
     atom  131 type  2   force =     0.00932026   -0.48704311  -24.17986047
     atom  132 type  2   force =     0.38033288    0.23996142  -24.04383704
     atom  133 type  2   force =    -1.25807897   -0.37784452  -77.57628576
     atom  134 type  2   force =     0.96517276   -0.89606995  -77.57934188
     atom  135 type  2   force =     0.30139703    1.28770001  -77.58070337
     atom  136 type  3   force =    -0.00034664   -0.00696208  104.61748007
     atom  137 type  4   force =    -0.05048044    0.21358987   82.51391948
     atom  138 type  4   force =     0.02924623    0.04376381   13.84141905
     atom  139 type  3   force =     0.03655670    0.35952894  104.05077964
     atom  140 type  4   force =     0.08672572    0.28006850   81.59275313
     atom  141 type  4   force =     0.00223164    0.09076547   13.49173591
     atom  142 type  3   force =     0.47301457    0.18777510  103.13917479
     atom  143 type  4   force =     0.35139326   -0.07402255   81.76425956
     atom  144 type  4   force =     0.05931308   -0.00190930   13.76278142
     atom  145 type  3   force =     0.32581549   -0.07885511  105.08950562
     atom  146 type  4   force =     0.20789423   -0.06121959   82.51633235
     atom  147 type  4   force =     0.03445763   -0.05459977   13.85916371
     atom  148 type  3   force =     0.30503813   -0.22363926  104.09410231
     atom  149 type  4   force =     0.16447756    0.01749367   82.48400752
     atom  150 type  4   force =     0.00892577    0.01228642   13.87818237
     atom  151 type  3   force =    -0.08223884    0.31774087  105.07195568
     atom  152 type  4   force =    -0.11026461    0.33798579   81.75534865
     atom  153 type  4   force =    -0.01969844    0.05649696   13.75006151
     atom  154 type  3   force =    -0.01442594    0.46453346  101.23420565
     atom  155 type  4   force =     0.00092380    0.00320698   80.66692415
     atom  156 type  4   force =     0.00176821    0.01271596   13.45595850
     atom  157 type  3   force =     0.40741535   -0.19828111  101.27270624
     atom  158 type  4   force =     0.19863073   -0.21392674   81.59680786
     atom  159 type  4   force =     0.07826561   -0.05455828   13.52612724
     atom  160 type  3   force =    -0.07987207   -0.50884151  103.19042459
     atom  161 type  4   force =    -0.02210492   -0.09240563   82.20377835
     atom  162 type  4   force =    -0.01466590    0.01876622   13.69467573
     atom  163 type  3   force =     0.04978948   -0.05055510  104.09622453
     atom  164 type  4   force =    -0.06943737    0.06507416   82.20930878
     atom  165 type  4   force =     0.03527361   -0.00177938   13.68232090
     atom  166 type  3   force =    -0.39398815    0.32340331  103.12797189
     atom  167 type  4   force =    -0.28707420   -0.06054334   81.60257674
     atom  168 type  4   force =    -0.08165752   -0.02891371   13.51211320
     atom  169 type  3   force =    -0.38878044   -0.22506463  101.27208454
     atom  170 type  4   force =    -0.24032289   -0.26442121   81.76294757
     atom  171 type  4   force =    -0.03897255   -0.05535896   13.77766579
     atom  172 type  3   force =    -0.24302424   -0.24440353  105.10596881
     atom  173 type  4   force =    -0.09460358    0.13322127   82.48155811
     atom  174 type  4   force =    -0.02450711   -0.01404064   13.88127721
     atom  175 type  3   force =     0.00622613    0.04615267  104.09305352
     atom  176 type  4   force =     0.09169693    0.03075324   82.21434153
     atom  177 type  4   force =    -0.02098508   -0.02323624   13.67986110
     atom  178 type  3   force =    -0.05808589   -0.02073503  104.12821227
     atom  179 type  4   force =    -0.06974502   -0.14567516   82.49440733
     atom  180 type  4   force =     0.01435531   -0.01395128   13.88349138
     atom  181 type  3   force =    -0.34294950   -0.13999626  104.09946154
     atom  182 type  4   force =    -0.15697278   -0.14768789   82.51580559
     atom  183 type  4   force =    -0.06425575   -0.00936578   13.85993378
     atom  184 type  5   force =    -0.01964266   -0.01229604   62.66409992
     atom  185 type  5   force =    -0.05505379   -0.02971636   62.60355401
     atom  186 type  5   force =    -0.06891668   -0.00962272   62.61373394
     atom  187 type  5   force =    -0.02957252    0.05509870   62.50131115
     atom  188 type  5   force =     0.00129743    0.06241705   62.60167859
     atom  189 type  5   force =    -0.00409139    0.01066057   62.66993250
     atom  190 type  5   force =    -0.00690656   -0.00816433   62.67103138
     atom  191 type  5   force =    -0.04401635   -0.01926389   62.84796502
     atom  192 type  5   force =    -0.04412635    0.00409347   62.71415313
     atom  193 type  5   force =    -0.01085833    0.03563033   62.51460617
     atom  194 type  5   force =    -0.00114955    0.02349242   62.66480186
     atom  195 type  5   force =     0.01100956   -0.00104928   62.67091477
     atom  196 type  5   force =     0.02072959   -0.01042537   62.66577032
     atom  197 type  5   force =    -0.00767495   -0.02598323   62.74420334
     atom  198 type  5   force =     0.00288830   -0.00621985   62.60564050
     atom  199 type  5   force =     0.02602840    0.00611668   62.74335328
     atom  200 type  5   force =     0.03892632   -0.02793637   62.84666630
     atom  201 type  5   force =     0.05378873   -0.03226912   62.60303408
     atom  202 type  5   force =     0.03670072   -0.00899466   62.51604447
     atom  203 type  5   force =    -0.00647302    0.00004925   62.60671360
     atom  204 type  5   force =     0.00352762    0.00513984   62.60505420
     atom  205 type  5   force =     0.01814844   -0.04013799   62.71302561
     atom  206 type  5   force =     0.04291494   -0.05446100   62.61228839
     atom  207 type  5   force =     0.06305540   -0.00249284   62.50226312
     atom  208 type  5   force =     0.02624378    0.03554988   62.71402965
     atom  209 type  5   force =    -0.01824327    0.01915862   62.74341103
     atom  210 type  5   force =    -0.02594521   -0.02697612   62.51445472
     atom  211 type  5   force =    -0.03362861   -0.05302063   62.50176641
     atom  212 type  5   force =    -0.00007727    0.00000242   62.43254137
     atom  213 type  5   force =     0.02589786    0.06393048   62.61204717
     atom  214 type  5   force =     0.00525126    0.04768576   62.84517438
     atom  215 type  6   force =    -0.04708704    0.01510029  104.14535448
     atom  216 type  6   force =    -0.02752306    0.10083385  104.32919787
     atom  217 type  6   force =    -0.01063094    0.10553381  104.74896811
     atom  218 type  6   force =    -0.02542267    0.01579041  104.42701022
     atom  219 type  6   force =    -0.08617703   -0.06145597  104.75407309
     atom  220 type  6   force =    -0.07514432   -0.01948232  104.87024552
     atom  221 type  6   force =    -0.03623202    0.06155592  104.28397741
     atom  222 type  6   force =    -0.01012916    0.07268921  104.18917730
     atom  223 type  6   force =     0.02596593    0.01495694  104.42784984
     atom  224 type  6   force =    -0.00051095   -0.02871674  104.42926186
     atom  225 type  6   force =    -0.04732359   -0.01927013  104.93737201
     atom  226 type  6   force =    -0.03189165    0.02431484  104.70804471
     atom  227 type  6   force =    -0.00834847    0.01954251  104.34268449
     atom  228 type  6   force =     0.04057793   -0.03080675  104.93598544
     atom  229 type  6   force =     0.09707282   -0.04257013  104.75261846
     atom  230 type  6   force =     0.06849588   -0.02752121  104.19070016
     atom  231 type  6   force =     0.02176661   -0.00378588  104.34388951
     atom  232 type  6   force =    -0.00026313   -0.00078396  104.24324459
     atom  233 type  6   force =    -0.00598548   -0.04020755  104.70728361
     atom  234 type  6   force =     0.05458970   -0.05437223  104.86706632
     atom  235 type  6   force =     0.10206683   -0.02659431  104.33070831
     atom  236 type  6   force =     0.07249243   -0.00067633  104.28735172
     atom  237 type  6   force =     0.03798033    0.01433596  104.71066953
     atom  238 type  6   force =    -0.01365148   -0.01757257  104.34124714
     atom  239 type  6   force =    -0.03644516   -0.06163550  104.28468801
     atom  240 type  6   force =     0.01018418   -0.04769635  104.14397643
     atom  241 type  6   force =     0.03661719    0.03262510  104.14544476
     atom  242 type  6   force =     0.02083977    0.07417303  104.86454654
     atom  243 type  6   force =     0.00687726    0.05043150  104.93394641
     atom  244 type  6   force =    -0.05834368   -0.04455909  104.18963811
     atom  245 type  6   force =    -0.07446217   -0.07412646  104.33270573
     The local contribution  to forces
     atom    1 type  1   force =     0.00000518    0.00026864   48.75821135
     atom    2 type  1   force =    -0.00878350    0.00459880   27.27566310
     atom    3 type  1   force =    -0.00274392   -0.00151075   54.92266056
     atom    4 type  1   force =    -0.00705528   -0.00416894   23.33979494
     atom    5 type  1   force =    -0.00004834    0.00127507   11.18558953
     atom    6 type  1   force =    -0.00076797    0.00050660   73.10129983
     atom    7 type  2   force =    -0.71985381   -0.18733528  128.85234799
     atom    8 type  2   force =     0.52239991   -0.52919284  128.85257535
     atom    9 type  2   force =     0.19747783    0.71724216  128.85223229
     atom   10 type  2   force =    -0.03060133    0.30155917   24.71593282
     atom   11 type  2   force =    -0.20427716   -0.23645648   24.80897299
     atom   12 type  2   force =     0.23340833   -0.05357463   24.67228794
     atom   13 type  2   force =     1.16385354    0.24849994   77.51309866
     atom   14 type  2   force =    -0.80643412    0.87674812   77.52536161
     atom   15 type  2   force =    -0.36666109   -1.13130664   77.51330746
     atom   16 type  1   force =     0.00076722    0.00461945   48.76581434
     atom   17 type  1   force =     0.00313028    0.00091697   27.29561487
     atom   18 type  1   force =    -0.00071801    0.00098160   54.92439990
     atom   19 type  1   force =    -0.00060582   -0.00058526   23.33952332
     atom   20 type  1   force =     0.03210170    0.06753279   11.28112678
     atom   21 type  1   force =     0.00037550    0.00011629   73.10260072
     atom   22 type  2   force =    -0.72127611   -0.18216087  128.85809244
     atom   23 type  2   force =     0.52441842   -0.52880944  128.86105079
     atom   24 type  2   force =     0.19732099    0.72166969  128.85616309
     atom   25 type  2   force =    -0.02837739    0.21542035   24.75029855
     atom   26 type  2   force =    -0.13381082   -0.24473538   24.69448371
     atom   27 type  2   force =     0.25243798    0.05925294   24.78911812
     atom   28 type  2   force =     1.15610867    0.26911350   77.52216577
     atom   29 type  2   force =    -0.79642497    0.87385233   77.53047401
     atom   30 type  2   force =    -0.35696140   -1.12141422   77.53015877
     atom   31 type  1   force =     0.00345580   -0.00230640   48.76506048
     atom   32 type  1   force =     0.00142394   -0.00999390   27.27503346
     atom   33 type  1   force =    -0.00023144   -0.00126467   54.92436353
     atom   34 type  1   force =     0.00170296   -0.00077816   23.33937256
     atom   35 type  1   force =     0.06203126   -0.00768347   11.27542581
     atom   36 type  1   force =     0.00007606   -0.00092732   73.10121725
     atom   37 type  2   force =    -0.71567813   -0.18807146  128.86144934
     atom   38 type  2   force =     0.52719467   -0.53465359  128.85467131
     atom   39 type  2   force =     0.20120549    0.71788486  128.85752439
     atom   40 type  2   force =    -0.06757962    0.22825061   24.67247093
     atom   41 type  2   force =    -0.24201403   -0.17551581   24.71248118
     atom   42 type  2   force =     0.30993207   -0.06048736   24.80647385
     atom   43 type  2   force =     1.16718207    0.25442300   77.53921387
     atom   44 type  2   force =    -0.81003153    0.86651181   77.52036361
     atom   45 type  2   force =    -0.35484255   -1.13731636   77.52527278
     atom   46 type  1   force =     0.00347968   -0.00263904   48.76509980
     atom   47 type  1   force =     0.00742886    0.00687063   27.27560611
     atom   48 type  1   force =     0.00269643   -0.00163810   54.92269667
     atom   49 type  1   force =     0.00728645   -0.00410793   23.33998840
     atom   50 type  1   force =     0.04163914   -0.05947367   11.27767738
     atom   51 type  1   force =     0.00069157    0.00062381   73.10130054
     atom   52 type  2   force =    -0.72006781   -0.18952603  128.86029602
     atom   53 type  2   force =     0.52601747   -0.53113674  128.85582310
     atom   54 type  2   force =     0.20274073    0.71578639  128.85727112
     atom   55 type  2   force =    -0.10532080    0.30046397   24.80692301
     atom   56 type  2   force =    -0.16593098   -0.17041454   24.67657353
     atom   57 type  2   force =     0.27312843   -0.11994110   24.71310776
     atom   58 type  2   force =     1.16462512    0.24673049   77.54423567
     atom   59 type  2   force =    -0.79713609    0.88492275   77.51416830
     atom   60 type  2   force =    -0.34599196   -1.13447991   77.52048963
     atom   61 type  1   force =    -0.00008386    0.00406235   48.76548784
     atom   62 type  1   force =    -0.00211087    0.00968563   27.29333074
     atom   63 type  1   force =     0.00005382    0.00342483   54.92317095
     atom   64 type  1   force =    -0.00016796    0.00940090   23.34177781
     atom   65 type  1   force =    -0.02601195    0.05730023   11.27763964
     atom   66 type  1   force =    -0.00005265    0.00126518   73.10129547
     atom   67 type  2   force =    -0.72263280   -0.18476819  128.85771287
     atom   68 type  2   force =     0.52033031   -0.52609394  128.86188962
     atom   69 type  2   force =     0.19917779    0.72407811  128.85518872
     atom   70 type  2   force =    -0.04626951    0.16890662   24.90027828
     atom   71 type  2   force =    -0.12049835   -0.15147513   24.74876767
     atom   72 type  2   force =     0.17377097    0.04334614   24.72687105
     atom   73 type  2   force =     1.16133619    0.26173615   77.52606880
     atom   74 type  2   force =    -0.79602059    0.88482127   77.54686051
     atom   75 type  2   force =    -0.35828087   -1.11402457   77.53266833
     atom   76 type  1   force =    -0.00003113   -0.00042398   48.77188799
     atom   77 type  1   force =     0.00965695   -0.00400516   27.29144110
     atom   78 type  1   force =     0.00173297    0.00073006   54.92966684
     atom   79 type  1   force =     0.00613501   -0.00098796   23.34714631
     atom   80 type  1   force =    -0.00025004   -0.00224309   11.41893832
     atom   81 type  1   force =     0.00114917   -0.00070443   73.10105253
     atom   82 type  2   force =    -0.72236900   -0.18717845  128.86324785
     atom   83 type  2   force =     0.52287331   -0.53247970  128.86305255
     atom   84 type  2   force =     0.19941997    0.71855433  128.86356020
     atom   85 type  2   force =    -0.06834589    0.17525473   24.74274359
     atom   86 type  2   force =    -0.05131854   -0.17197882   24.71921147
     atom   87 type  2   force =     0.17078980   -0.04917766   24.89597581
     atom   88 type  2   force =     1.15408620    0.26017957   77.54886837
     atom   89 type  2   force =    -0.78610675    0.86669169   77.53052436
     atom   90 type  2   force =    -0.35079519   -1.13159269   77.54815211
     atom   91 type  1   force =    -0.00337747   -0.00172598   48.76480080
     atom   92 type  1   force =    -0.00038902   -0.00223092   27.29450312
     atom   93 type  1   force =    -0.00000060   -0.00200942   54.92915262
     atom   94 type  1   force =    -0.00300933   -0.00524706   23.34505751
     atom   95 type  1   force =    -0.03611621   -0.04891186   11.27446279
     atom   96 type  1   force =    -0.00005107   -0.00026004   73.10243181
     atom   97 type  2   force =    -0.72635896   -0.18906220  128.85463747
     atom   98 type  2   force =     0.52143998   -0.53292553  128.85725282
     atom   99 type  2   force =     0.19531975    0.71364768  128.86103968
     atom  100 type  2   force =    -0.14196923    0.24055866   24.69277244
     atom  101 type  2   force =    -0.07572164   -0.24445357   24.78733029
     atom  102 type  2   force =     0.20229310   -0.08039674   24.74379680
     atom  103 type  2   force =     1.14432703    0.24717380   77.53003494
     atom  104 type  2   force =    -0.79307417    0.87139159   77.52880986
     atom  105 type  2   force =    -0.36226219   -1.13763948   77.53751545
     atom  106 type  1   force =     0.00001141    0.00012542   48.76428640
     atom  107 type  1   force =    -0.00262975    0.00161436   27.29555314
     atom  108 type  1   force =     0.00097561    0.00054025   54.92438057
     atom  109 type  1   force =    -0.00104284    0.00230160   23.33946474
     atom  110 type  1   force =     0.00008404    0.00054475   11.20699649
     atom  111 type  1   force =    -0.00032450    0.00019635   73.10258862
     atom  112 type  2   force =    -0.72221823   -0.18736867  128.85790722
     atom  113 type  2   force =     0.52351341   -0.53183737  128.85788749
     atom  114 type  2   force =     0.19873269    0.71956122  128.85772890
     atom  115 type  2   force =    -0.17662805    0.18804407   24.78895009
     atom  116 type  2   force =    -0.17317730   -0.13690842   24.74835953
     atom  117 type  2   force =     0.27609765    0.00569567   24.69592292
     atom  118 type  2   force =     1.15548780    0.25366098   77.53005291
     atom  119 type  2   force =    -0.80491327    0.88243657   77.53961223
     atom  120 type  2   force =    -0.35894455   -1.12652683   77.53048356
     atom  121 type  1   force =    -0.00423421   -0.00197617   48.76528242
     atom  122 type  1   force =    -0.00771589   -0.00746366   27.29118781
     atom  123 type  1   force =    -0.00176847    0.00069218   54.92961397
     atom  124 type  1   force =    -0.00324008    0.00407121   23.34691949
     atom  125 type  1   force =    -0.07343854   -0.00773498   11.27856817
     atom  126 type  1   force =    -0.00111757   -0.00077583   73.10103251
     atom  127 type  2   force =    -0.72331801   -0.19018472  128.85580949
     atom  128 type  2   force =     0.51851416   -0.53373891  128.85733453
     atom  129 type  2   force =     0.19566451    0.71810222  128.86076652
     atom  130 type  2   force =    -0.12286753    0.12754598   24.71912792
     atom  131 type  2   force =    -0.12500323   -0.12467356   24.89134777
     atom  132 type  2   force =     0.18784676   -0.03429325   24.74488365
     atom  133 type  2   force =     1.15015320    0.25063525   77.52947188
     atom  134 type  2   force =    -0.80356897    0.86808680   77.54707855
     atom  135 type  2   force =    -0.36869938   -1.13333416   77.54518438
     atom  136 type  3   force =     0.00029752    0.00696465 -104.62173514
     atom  137 type  4   force =     0.04988410   -0.21213719  -82.25319729
     atom  138 type  4   force =    -0.02609673   -0.03257309  -14.09901726
     atom  139 type  3   force =    -0.03502734   -0.36027095 -104.05575805
     atom  140 type  4   force =    -0.08519611   -0.27608302  -81.33613994
     atom  141 type  4   force =    -0.00208233   -0.07948079  -13.71356211
     atom  142 type  3   force =    -0.47100667   -0.18834338 -103.14453626
     atom  143 type  4   force =    -0.34706645    0.07293115  -81.50353056
     atom  144 type  4   force =    -0.05553336   -0.00134385  -13.97981753
     atom  145 type  3   force =    -0.32523245    0.08212748 -105.08887838
     atom  146 type  4   force =    -0.20630454    0.06081227  -82.25546437
     atom  147 type  4   force =    -0.02635663    0.04627068  -14.11687757
     atom  148 type  3   force =    -0.30626914    0.22265302 -104.09887943
     atom  149 type  4   force =    -0.16267883   -0.01681190  -82.21689199
     atom  150 type  4   force =    -0.00703846   -0.00627739  -14.13575370
     atom  151 type  3   force =     0.07931202   -0.31878568 -105.07142773
     atom  152 type  4   force =     0.10901086   -0.33365676  -81.49462090
     atom  153 type  4   force =     0.02078020   -0.05150273  -13.96701777
     atom  154 type  3   force =     0.01449773   -0.46401464 -101.23825101
     atom  155 type  4   force =    -0.00092184   -0.00329675  -80.41514309
     atom  156 type  4   force =    -0.00174618   -0.01262933  -13.63855272
     atom  157 type  3   force =    -0.40701243    0.19808225 -101.27661737
     atom  158 type  4   force =    -0.19594132    0.21048672  -81.34016250
     atom  159 type  4   force =    -0.06867343    0.04894581  -13.74805001
     atom  160 type  3   force =     0.07846363    0.50744335 -103.19558128
     atom  161 type  4   force =     0.02268494    0.09122235  -81.93564596
     atom  162 type  4   force =     0.01538915   -0.02048338  -13.95309465
     atom  163 type  3   force =    -0.04900511    0.04936269 -104.10816208
     atom  164 type  4   force =     0.06809128   -0.06497837  -81.94126140
     atom  165 type  4   force =    -0.03710658    0.00215323  -13.94069421
     atom  166 type  3   force =     0.39343865   -0.32147310 -103.13341369
     atom  167 type  4   force =     0.28285514    0.05977003  -81.34590767
     atom  168 type  4   force =     0.07193692    0.02356344  -13.73398727
     atom  169 type  3   force =     0.38828585    0.22492723 -101.27597677
     atom  170 type  4   force =     0.23725827    0.26104633  -81.50231848
     atom  171 type  4   force =     0.03413999    0.05392302  -13.99468040
     atom  172 type  3   force =     0.24534056    0.24245927 -105.10523164
     atom  173 type  4   force =     0.09305899   -0.13207579  -82.21433682
     atom  174 type  4   force =     0.01837675    0.01259491  -14.13893341
     atom  175 type  3   force =    -0.00569387   -0.04504231 -104.10500540
     atom  176 type  4   force =    -0.09095466   -0.02971152  -81.94638471
     atom  177 type  4   force =     0.02209906    0.02482287  -13.93816389
     atom  178 type  3   force =     0.05668323    0.02050943 -104.13985924
     atom  179 type  4   force =     0.06951506    0.14374315  -82.22728116
     atom  180 type  4   force =    -0.01014439    0.00953772  -14.14118534
     atom  181 type  3   force =     0.34278496    0.14171257 -104.10420617
     atom  182 type  4   force =     0.15593680    0.14632161  -82.25498827
     atom  183 type  4   force =     0.05300223    0.00656118  -14.11768984
     atom  184 type  5   force =     0.02003925    0.01318834  -62.66044897
     atom  185 type  5   force =     0.05573004    0.02890443  -62.60030574
     atom  186 type  5   force =     0.06954411    0.00974557  -62.61131890
     atom  187 type  5   force =     0.02961967   -0.05480531  -62.49711689
     atom  188 type  5   force =    -0.00232513   -0.06259616  -62.59842194
     atom  189 type  5   force =     0.00367963   -0.01054699  -62.66496357
     atom  190 type  5   force =     0.00701106    0.00774319  -62.66606559
     atom  191 type  5   force =     0.04450762    0.01900274  -62.84837667
     atom  192 type  5   force =     0.04503683   -0.00357834  -62.71301324
     atom  193 type  5   force =     0.01157722   -0.03567368  -62.50960730
     atom  194 type  5   force =     0.00172845   -0.02428046  -62.66116677
     atom  195 type  5   force =    -0.01070000    0.00135139  -62.66595096
     atom  196 type  5   force =    -0.02169975    0.01032190  -62.66212714
     atom  197 type  5   force =     0.00678537    0.02605280  -62.74257304
     atom  198 type  5   force =    -0.00287543    0.00652432  -62.60068710
     atom  199 type  5   force =    -0.02564984   -0.00692266  -62.74173825
     atom  200 type  5   force =    -0.03895066    0.02849899  -62.84707021
     atom  201 type  5   force =    -0.05342338    0.03325128  -62.59977157
     atom  202 type  5   force =    -0.03708587    0.00838497  -62.51104668
     atom  203 type  5   force =     0.00672982   -0.00020833  -62.60177500
     atom  204 type  5   force =    -0.00380648   -0.00527141  -62.60008993
     atom  205 type  5   force =    -0.01905619    0.04067636  -62.71188242
     atom  206 type  5   force =    -0.04334116    0.05493837  -62.60984859
     atom  207 type  5   force =    -0.06282458    0.00229509  -62.49808291
     atom  208 type  5   force =    -0.02625077   -0.03658799  -62.71289881
     atom  209 type  5   force =     0.01875541   -0.01841270  -62.74179362
     atom  210 type  5   force =     0.02562200    0.02762054  -62.50945126
     atom  211 type  5   force =     0.03334654    0.05290842  -62.49757365
     atom  212 type  5   force =     0.00007338   -0.00000783  -62.42716732
     atom  213 type  5   force =    -0.02610578   -0.06453688  -62.60962102
     atom  214 type  5   force =    -0.00572441   -0.04797838  -62.84556023
     atom  215 type  6   force =     0.04717778   -0.01473702 -104.14258047
     atom  216 type  6   force =     0.02774735   -0.10078022 -104.32399125
     atom  217 type  6   force =     0.01007555   -0.10688255 -104.73504499
     atom  218 type  6   force =     0.02594095   -0.01657681 -104.42452002
     atom  219 type  6   force =     0.08762747    0.06164864 -104.74006005
     atom  220 type  6   force =     0.07538499    0.01974712 -104.85184140
     atom  221 type  6   force =     0.03642190   -0.06132212 -104.28234464
     atom  222 type  6   force =     0.00975764   -0.07343133 -104.19384849
     atom  223 type  6   force =    -0.02689229   -0.01501222 -104.42532473
     atom  224 type  6   force =     0.00093062    0.02956367 -104.42673737
     atom  225 type  6   force =     0.04799518    0.01886929 -104.91892304
     atom  226 type  6   force =     0.03235225   -0.02535303 -104.69428136
     atom  227 type  6   force =     0.00954421   -0.02020501 -104.34153178
     atom  228 type  6   force =    -0.04057861    0.03159380 -104.91751581
     atom  229 type  6   force =    -0.09796119    0.04373790 -104.73862189
     atom  230 type  6   force =    -0.06894222    0.02821310 -104.19541360
     atom  231 type  6   force =    -0.02293483    0.00306743 -104.34276389
     atom  232 type  6   force =     0.00025690    0.00077560 -104.24348407
     atom  233 type  6   force =     0.00663130    0.04113474 -104.69349448
     atom  234 type  6   force =    -0.05495405    0.05445069 -104.84871930
     atom  235 type  6   force =    -0.10212552    0.02638377 -104.32548930
     atom  236 type  6   force =    -0.07237085    0.00039638 -104.28560298
     atom  237 type  6   force =    -0.03909958   -0.01423045 -104.69677283
     atom  238 type  6   force =     0.01360930    0.01894953 -104.34014966
     atom  239 type  6   force =     0.03613014    0.06168408 -104.28298426
     atom  240 type  6   force =    -0.01054486    0.04760024 -104.14122557
     atom  241 type  6   force =    -0.03634717   -0.03287046 -104.14263583
     atom  242 type  6   force =    -0.02071871   -0.07451592 -104.84631497
     atom  243 type  6   force =    -0.00755615   -0.05082068 -104.91552808
     atom  244 type  6   force =     0.05917054    0.04459848 -104.19431825
     atom  245 type  6   force =     0.07430708    0.07429306 -104.32742439
     The core correction contribution to forces
     atom    1 type  1   force =    -0.00000018   -0.00000007    0.00833176
     atom    2 type  1   force =     0.00000271   -0.00005653    0.00758701
     atom    3 type  1   force =    -0.00003550   -0.00001021   -0.00912495
     atom    4 type  1   force =    -0.00019320   -0.00015668    0.00946830
     atom    5 type  1   force =     0.00000065   -0.00000094   -0.01272291
     atom    6 type  1   force =    -0.00001230   -0.00001676    0.02800073
     atom    7 type  2   force =    -0.00616263   -0.00111800    0.00106695
     atom    8 type  2   force =     0.00404951   -0.00477817    0.00106697
     atom    9 type  2   force =     0.00211316    0.00589599    0.00106702
     atom   10 type  2   force =    -0.00423595    0.00390214    0.00589011
     atom   11 type  2   force =    -0.00112214   -0.00560660    0.00595439
     atom   12 type  2   force =     0.00535592    0.00171868    0.00582441
     atom   13 type  2   force =    -0.00083811   -0.00116545   -0.00041731
     atom   14 type  2   force =     0.00142142   -0.00020858   -0.00041490
     atom   15 type  2   force =    -0.00059057    0.00130834   -0.00041719
     atom   16 type  1   force =     0.00007101    0.00010219    0.00836074
     atom   17 type  1   force =     0.00025495    0.00008157    0.00765408
     atom   18 type  1   force =     0.00002130    0.00000559   -0.00915959
     atom   19 type  1   force =    -0.00001945   -0.00006162    0.00936754
     atom   20 type  1   force =     0.00007661    0.00017200   -0.01213197
     atom   21 type  1   force =     0.00002619   -0.00000063    0.02798292
     atom   22 type  2   force =    -0.00615137   -0.00108784    0.00108024
     atom   23 type  2   force =     0.00406557   -0.00476069    0.00109729
     atom   24 type  2   force =     0.00212073    0.00590356    0.00106113
     atom   25 type  2   force =    -0.00395966    0.00378401    0.00614069
     atom   26 type  2   force =    -0.00099564   -0.00553943    0.00575805
     atom   27 type  2   force =     0.00550145    0.00191158    0.00590034
     atom   28 type  2   force =    -0.00083679   -0.00107446   -0.00039449
     atom   29 type  2   force =     0.00144084   -0.00015126   -0.00044206
     atom   30 type  2   force =    -0.00049912    0.00136734   -0.00041272
     atom   31 type  1   force =     0.00006341   -0.00000400    0.00836067
     atom   32 type  1   force =     0.00004670    0.00003152    0.00758713
     atom   33 type  1   force =    -0.00001589    0.00001553   -0.00915994
     atom   34 type  1   force =     0.00006137    0.00001376    0.00936717
     atom   35 type  1   force =     0.00024414    0.00004810   -0.01220214
     atom   36 type  1   force =     0.00002055   -0.00000208    0.02800084
     atom   37 type  2   force =    -0.00610472   -0.00110604    0.00111247
     atom   38 type  2   force =     0.00407890   -0.00478723    0.00106741
     atom   39 type  2   force =     0.00214206    0.00591066    0.00105916
     atom   40 type  2   force =    -0.00416694    0.00377981    0.00582354
     atom   41 type  2   force =    -0.00126235   -0.00561979    0.00589089
     atom   42 type  2   force =     0.00541589    0.00183199    0.00595389
     atom   43 type  2   force =    -0.00075965   -0.00111644   -0.00031634
     atom   44 type  2   force =     0.00134855   -0.00018721   -0.00039390
     atom   45 type  2   force =    -0.00053045    0.00133549   -0.00041542
     atom   46 type  1   force =     0.00005309   -0.00011288    0.00836115
     atom   47 type  1   force =    -0.00005022    0.00002476    0.00758701
     atom   48 type  1   force =     0.00002630   -0.00002559   -0.00912502
     atom   49 type  1   force =     0.00023285   -0.00008875    0.00946821
     atom   50 type  1   force =     0.00011154   -0.00015334   -0.01213647
     atom   51 type  1   force =    -0.00000834    0.00001897    0.02800080
     atom   52 type  2   force =    -0.00615548   -0.00114062    0.00109759
     atom   53 type  2   force =     0.00405234   -0.00478863    0.00106122
     atom   54 type  2   force =     0.00213368    0.00587104    0.00108039
     atom   55 type  2   force =    -0.00429343    0.00377407    0.00595354
     atom   56 type  2   force =    -0.00118900   -0.00549811    0.00582395
     atom   57 type  2   force =     0.00549825    0.00171668    0.00589039
     atom   58 type  2   force =    -0.00081645   -0.00124558   -0.00023747
     atom   59 type  2   force =     0.00142859   -0.00014327   -0.00041746
     atom   60 type  2   force =    -0.00051194    0.00126151   -0.00039398
     atom   61 type  1   force =    -0.00002794    0.00005679    0.00836059
     atom   62 type  1   force =     0.00000506    0.00020664    0.00783244
     atom   63 type  1   force =     0.00000891    0.00003537   -0.00912531
     atom   64 type  1   force =    -0.00003899    0.00024545    0.00946789
     atom   65 type  1   force =    -0.00016360    0.00018756   -0.01219916
     atom   66 type  1   force =    -0.00000801    0.00002993    0.02789092
     atom   67 type  2   force =    -0.00618982   -0.00110035    0.00105922
     atom   68 type  2   force =     0.00401033   -0.00473381    0.00111245
     atom   69 type  2   force =     0.00210646    0.00592602    0.00106728
     atom   70 type  2   force =    -0.00420813    0.00363100    0.00659458
     atom   71 type  2   force =    -0.00090496   -0.00524180    0.00633766
     atom   72 type  2   force =     0.00524292    0.00208827    0.00612736
     atom   73 type  2   force =    -0.00089104   -0.00112713   -0.00041543
     atom   74 type  2   force =     0.00148715   -0.00008435   -0.00023845
     atom   75 type  2   force =    -0.00058188    0.00140706   -0.00031314
     atom   76 type  1   force =     0.00000025    0.00000035    0.00845735
     atom   77 type  1   force =     0.00017731   -0.00010647    0.00783311
     atom   78 type  1   force =     0.00004614    0.00003105   -0.00902402
     atom   79 type  1   force =     0.00022346    0.00008893    0.00957780
     atom   80 type  1   force =    -0.00000012    0.00000106   -0.01058649
     atom   81 type  1   force =     0.00002971   -0.00000801    0.02789055
     atom   82 type  2   force =    -0.00616081   -0.00110709    0.00112259
     atom   83 type  2   force =     0.00403924   -0.00478153    0.00112272
     atom   84 type  2   force =     0.00212155    0.00588910    0.00112251
     atom   85 type  2   force =    -0.00408754    0.00340609    0.00633930
     atom   86 type  2   force =    -0.00081326   -0.00558550    0.00612713
     atom   87 type  2   force =     0.00525022    0.00182976    0.00659272
     atom   88 type  2   force =    -0.00089374   -0.00110705   -0.00019305
     atom   89 type  2   force =     0.00150973   -0.00019938   -0.00031277
     atom   90 type  2   force =    -0.00051180    0.00132824   -0.00019300
     atom   91 type  1   force =    -0.00003560   -0.00005271    0.00836105
     atom   92 type  1   force =    -0.00005637   -0.00026180    0.00765504
     atom   93 type  1   force =     0.00000367   -0.00005541   -0.00902323
     atom   94 type  1   force =    -0.00003473   -0.00023805    0.00957871
     atom   95 type  1   force =    -0.00008112   -0.00023583   -0.01220237
     atom   96 type  1   force =    -0.00001363   -0.00002253    0.02798245
     atom   97 type  2   force =    -0.00618538   -0.00113871    0.00106765
     atom   98 type  2   force =     0.00404762   -0.00481037    0.00105947
     atom   99 type  2   force =     0.00209433    0.00583985    0.00111267
     atom  100 type  2   force =    -0.00430007    0.00363092    0.00576000
     atom  101 type  2   force =    -0.00109431   -0.00572175    0.00590193
     atom  102 type  2   force =     0.00525830    0.00153729    0.00614101
     atom  103 type  2   force =    -0.00092796   -0.00120737   -0.00031236
     atom  104 type  2   force =     0.00143432   -0.00025186   -0.00041228
     atom  105 type  2   force =    -0.00058707    0.00121603   -0.00031532
     atom  106 type  1   force =    -0.00000000   -0.00000038    0.00829214
     atom  107 type  1   force =    -0.00019804    0.00017930    0.00765392
     atom  108 type  1   force =    -0.00000546   -0.00002176   -0.00915967
     atom  109 type  1   force =    -0.00004190    0.00004664    0.00936757
     atom  110 type  1   force =    -0.00000094   -0.00000111   -0.01257580
     atom  111 type  1   force =    -0.00001284    0.00002321    0.02798302
     atom  112 type  2   force =    -0.00616211   -0.00111848    0.00105109
     atom  113 type  2   force =     0.00404952   -0.00477739    0.00105103
     atom  114 type  2   force =     0.00211249    0.00589554    0.00105108
     atom  115 type  2   force =    -0.00440709    0.00380824    0.00590090
     atom  116 type  2   force =    -0.00129755   -0.00532178    0.00613920
     atom  117 type  2   force =     0.00529496    0.00190738    0.00575883
     atom  118 type  2   force =    -0.00085143   -0.00117275   -0.00044149
     atom  119 type  2   force =     0.00134682   -0.00009971   -0.00031640
     atom  120 type  2   force =    -0.00058947    0.00132303   -0.00044165
     atom  121 type  1   force =    -0.00012411    0.00001071    0.00836082
     atom  122 type  1   force =    -0.00018144   -0.00009836    0.00783343
     atom  123 type  1   force =    -0.00004987    0.00002448   -0.00902400
     atom  124 type  1   force =    -0.00018958    0.00014987    0.00957802
     atom  125 type  1   force =    -0.00018789   -0.00001846   -0.01213564
     atom  126 type  1   force =    -0.00002187   -0.00002159    0.02789049
     atom  127 type  2   force =    -0.00617321   -0.00111507    0.00106107
     atom  128 type  2   force =     0.00401758   -0.00478311    0.00108042
     atom  129 type  2   force =     0.00209009    0.00590125    0.00109743
     atom  130 type  2   force =    -0.00443094    0.00349821    0.00612730
     atom  131 type  2   force =    -0.00104144   -0.00546102    0.00659256
     atom  132 type  2   force =     0.00499278    0.00183848    0.00633860
     atom  133 type  2   force =    -0.00093480   -0.00111592   -0.00041269
     atom  134 type  2   force =     0.00140580   -0.00022013   -0.00019240
     atom  135 type  2   force =    -0.00067059    0.00133053   -0.00023799
     atom  136 type  3   force =    -0.00000433   -0.00000377   -0.00055124
     atom  137 type  4   force =    -0.00004156    0.00012182    0.03113420
     atom  138 type  4   force =     0.00039155    0.00127354   -0.03036080
     atom  139 type  3   force =     0.00008708    0.00026205   -0.00050224
     atom  140 type  4   force =     0.00017456    0.00034528    0.03070332
     atom  141 type  4   force =    -0.00005335    0.00123681   -0.02604300
     atom  142 type  3   force =     0.00052856    0.00014693   -0.00064690
     atom  143 type  4   force =     0.00039785   -0.00005587    0.03132634
     atom  144 type  4   force =     0.00022859   -0.00039970   -0.02530782
     atom  145 type  3   force =     0.00035467    0.00010974   -0.00019859
     atom  146 type  4   force =     0.00016376   -0.00008680    0.03115792
     atom  147 type  4   force =     0.00086705   -0.00096683   -0.03034839
     atom  148 type  3   force =     0.00020291   -0.00021533   -0.00049014
     atom  149 type  4   force =     0.00007154   -0.00005386    0.03198599
     atom  150 type  4   force =     0.00020663    0.00082114   -0.03027832
     atom  151 type  3   force =    -0.00025434    0.00025956   -0.00019845
     atom  152 type  4   force =    -0.00015709    0.00040319    0.03130354
     atom  153 type  4   force =     0.00025350    0.00041576   -0.02530891
     atom  154 type  3   force =     0.00004939    0.00039338   -0.00093917
     atom  155 type  4   force =    -0.00001006   -0.00003443    0.03020718
     atom  156 type  4   force =    -0.00000436   -0.00001573   -0.02137332
     atom  157 type  3   force =     0.00031195   -0.00022053   -0.00093253
     atom  158 type  4   force =     0.00023365   -0.00035094    0.03072243
     atom  159 type  4   force =     0.00106853   -0.00049439   -0.02601586
     atom  160 type  3   force =    -0.00013011   -0.00052657   -0.00063022
     atom  161 type  4   force =     0.00005260   -0.00020602    0.03201957
     atom  162 type  4   force =     0.00012899   -0.00012352   -0.03037938
     atom  163 type  3   force =     0.00016404   -0.00011804   -0.00097891
     atom  164 type  4   force =    -0.00021832    0.00004322    0.03202087
     atom  165 type  4   force =    -0.00020134    0.00000937   -0.03038430
     atom  166 type  3   force =    -0.00039429    0.00037770   -0.00065772
     atom  167 type  4   force =    -0.00038199   -0.00008118    0.03074290
     atom  168 type  4   force =    -0.00100130   -0.00067825   -0.02601602
     atom  169 type  3   force =    -0.00036353   -0.00014164   -0.00093254
     atom  170 type  4   force =    -0.00024551   -0.00036058    0.03131673
     atom  171 type  4   force =    -0.00048012    0.00010146   -0.02529943
     atom  172 type  3   force =    -0.00010438   -0.00034725   -0.00018549
     atom  173 type  4   force =    -0.00002612    0.00006183    0.03199541
     atom  174 type  4   force =    -0.00078524   -0.00021830   -0.03027354
     atom  175 type  3   force =     0.00000860    0.00018211   -0.00098265
     atom  176 type  4   force =     0.00015097    0.00009362    0.03201905
     atom  177 type  4   force =     0.00007505    0.00019087   -0.03037795
     atom  178 type  3   force =    -0.00017950   -0.00009830   -0.00095586
     atom  179 type  4   force =    -0.00003642   -0.00006887    0.03200234
     atom  180 type  4   force =     0.00057543   -0.00051342   -0.03028806
     atom  181 type  3   force =    -0.00027685   -0.00005340   -0.00048771
     atom  182 type  4   force =    -0.00013930   -0.00014151    0.03114500
     atom  183 type  4   force =    -0.00125545   -0.00022638   -0.03036540
     atom  184 type  5   force =    -0.00001765   -0.00003287    0.00008040
     atom  185 type  5   force =     0.00005906   -0.00015408    0.00005843
     atom  186 type  5   force =     0.00003622   -0.00002491    0.00002586
     atom  187 type  5   force =    -0.00002227    0.00007387    0.00012643
     atom  188 type  5   force =    -0.00016516    0.00002237    0.00005911
     atom  189 type  5   force =    -0.00010718   -0.00001920    0.00017244
     atom  190 type  5   force =     0.00006273   -0.00008631    0.00017215
     atom  191 type  5   force =     0.00010674   -0.00007962   -0.00015808
     atom  192 type  5   force =     0.00007478    0.00003525   -0.00006095
     atom  193 type  5   force =     0.00002287    0.00006234    0.00013882
     atom  194 type  5   force =    -0.00001989    0.00002831    0.00007968
     atom  195 type  5   force =     0.00003824    0.00009557    0.00017217
     atom  196 type  5   force =     0.00003424   -0.00000037    0.00007975
     atom  197 type  5   force =    -0.00001124   -0.00003932   -0.00001826
     atom  198 type  5   force =     0.00003413    0.00002159    0.00017694
     atom  199 type  5   force =     0.00003975    0.00001272   -0.00001892
     atom  200 type  5   force =     0.00001503    0.00013560   -0.00015748
     atom  201 type  5   force =     0.00010511    0.00012875    0.00005924
     atom  202 type  5   force =     0.00004385   -0.00005347    0.00013848
     atom  203 type  5   force =     0.00000192   -0.00003935    0.00017611
     atom  204 type  5   force =    -0.00003325    0.00002200    0.00017740
     atom  205 type  5   force =    -0.00006636    0.00005349   -0.00006066
     atom  206 type  5   force =     0.00000710    0.00004872    0.00002719
     atom  207 type  5   force =     0.00007672   -0.00001874    0.00012592
     atom  208 type  5   force =    -0.00000697   -0.00008474   -0.00006136
     atom  209 type  5   force =    -0.00002717    0.00002844   -0.00001873
     atom  210 type  5   force =    -0.00006518   -0.00000792    0.00013892
     atom  211 type  5   force =    -0.00005204   -0.00005140    0.00012643
     atom  212 type  5   force =     0.00000123    0.00000184    0.00020520
     atom  213 type  5   force =    -0.00004160   -0.00002017    0.00002640
     atom  214 type  5   force =    -0.00012411   -0.00005821   -0.00015651
     atom  215 type  6   force =     0.00000673    0.00000054    0.00005969
     atom  216 type  6   force =    -0.00000372    0.00000441    0.00007555
     atom  217 type  6   force =    -0.00001411    0.00000577    0.00015402
     atom  218 type  6   force =    -0.00000449    0.00000248    0.00004334
     atom  219 type  6   force =     0.00000234   -0.00001510    0.00015474
     atom  220 type  6   force =     0.00000483   -0.00000396    0.00018865
     atom  221 type  6   force =     0.00000813    0.00001554    0.00003137
     atom  222 type  6   force =     0.00000161   -0.00000227   -0.00003481
     atom  223 type  6   force =     0.00000436    0.00000278    0.00004375
     atom  224 type  6   force =     0.00000012   -0.00000516    0.00004354
     atom  225 type  6   force =    -0.00000895   -0.00001585    0.00019176
     atom  226 type  6   force =     0.00000476    0.00000072    0.00015116
     atom  227 type  6   force =     0.00001829   -0.00000788    0.00002600
     atom  228 type  6   force =     0.00001794    0.00000025    0.00019209
     atom  229 type  6   force =     0.00001162    0.00000933    0.00015484
     atom  230 type  6   force =    -0.00000301   -0.00000067   -0.00003539
     atom  231 type  6   force =    -0.00001605   -0.00001182    0.00002551
     atom  232 type  6   force =     0.00000010    0.00000020    0.00001582
     atom  233 type  6   force =    -0.00000292    0.00000409    0.00015133
     atom  234 type  6   force =     0.00000066    0.00000576    0.00018795
     atom  235 type  6   force =     0.00000547    0.00000052    0.00007557
     atom  236 type  6   force =     0.00000934   -0.00001492    0.00003264
     atom  237 type  6   force =    -0.00000163   -0.00000410    0.00015279
     atom  238 type  6   force =    -0.00000215    0.00002026    0.00002530
     atom  239 type  6   force =    -0.00001755   -0.00000077    0.00003230
     atom  240 type  6   force =    -0.00000410    0.00000510    0.00005952
     atom  241 type  6   force =    -0.00000291   -0.00000642    0.00006017
     atom  242 type  6   force =    -0.00000557   -0.00000203    0.00018645
     atom  243 type  6   force =    -0.00000898    0.00001600    0.00019163
     atom  244 type  6   force =     0.00000144    0.00000273   -0.00003480
     atom  245 type  6   force =    -0.00000180   -0.00000556    0.00007633
     The Hubbard contrib.    to forces
     atom    1 type  1   force =     0.00000000    0.00000000    0.00000000
     atom    2 type  1   force =     0.00000000    0.00000000    0.00000000
     atom    3 type  1   force =     0.00000000    0.00000000    0.00000000
     atom    4 type  1   force =     0.00000000    0.00000000    0.00000000
     atom    5 type  1   force =     0.00000000    0.00000000    0.00000000
     atom    6 type  1   force =     0.00000000    0.00000000    0.00000000
     atom    7 type  2   force =     0.00000000    0.00000000    0.00000000
     atom    8 type  2   force =     0.00000000    0.00000000    0.00000000
     atom    9 type  2   force =     0.00000000    0.00000000    0.00000000
     atom   10 type  2   force =     0.00000000    0.00000000    0.00000000
     atom   11 type  2   force =     0.00000000    0.00000000    0.00000000
     atom   12 type  2   force =     0.00000000    0.00000000    0.00000000
     atom   13 type  2   force =     0.00000000    0.00000000    0.00000000
     atom   14 type  2   force =     0.00000000    0.00000000    0.00000000
     atom   15 type  2   force =     0.00000000    0.00000000    0.00000000
     atom   16 type  1   force =     0.00000000    0.00000000    0.00000000
     atom   17 type  1   force =     0.00000000    0.00000000    0.00000000
     atom   18 type  1   force =     0.00000000    0.00000000    0.00000000
     atom   19 type  1   force =     0.00000000    0.00000000    0.00000000
     atom   20 type  1   force =     0.00000000    0.00000000    0.00000000
     atom   21 type  1   force =     0.00000000    0.00000000    0.00000000
     atom   22 type  2   force =     0.00000000    0.00000000    0.00000000
     atom   23 type  2   force =     0.00000000    0.00000000    0.00000000
     atom   24 type  2   force =     0.00000000    0.00000000    0.00000000
     atom   25 type  2   force =     0.00000000    0.00000000    0.00000000
     atom   26 type  2   force =     0.00000000    0.00000000    0.00000000
     atom   27 type  2   force =     0.00000000    0.00000000    0.00000000
     atom   28 type  2   force =     0.00000000    0.00000000    0.00000000
     atom   29 type  2   force =     0.00000000    0.00000000    0.00000000
     atom   30 type  2   force =     0.00000000    0.00000000    0.00000000
     atom   31 type  1   force =     0.00000000    0.00000000    0.00000000
     atom   32 type  1   force =     0.00000000    0.00000000    0.00000000
     atom   33 type  1   force =     0.00000000    0.00000000    0.00000000
     atom   34 type  1   force =     0.00000000    0.00000000    0.00000000
     atom   35 type  1   force =     0.00000000    0.00000000    0.00000000
     atom   36 type  1   force =     0.00000000    0.00000000    0.00000000
     atom   37 type  2   force =     0.00000000    0.00000000    0.00000000
     atom   38 type  2   force =     0.00000000    0.00000000    0.00000000
     atom   39 type  2   force =     0.00000000    0.00000000    0.00000000
     atom   40 type  2   force =     0.00000000    0.00000000    0.00000000
     atom   41 type  2   force =     0.00000000    0.00000000    0.00000000
     atom   42 type  2   force =     0.00000000    0.00000000    0.00000000
     atom   43 type  2   force =     0.00000000    0.00000000    0.00000000
     atom   44 type  2   force =     0.00000000    0.00000000    0.00000000
     atom   45 type  2   force =     0.00000000    0.00000000    0.00000000
     atom   46 type  1   force =     0.00000000    0.00000000    0.00000000
     atom   47 type  1   force =     0.00000000    0.00000000    0.00000000
     atom   48 type  1   force =     0.00000000    0.00000000    0.00000000
     atom   49 type  1   force =     0.00000000    0.00000000    0.00000000
     atom   50 type  1   force =     0.00000000    0.00000000    0.00000000
     atom   51 type  1   force =     0.00000000    0.00000000    0.00000000
     atom   52 type  2   force =     0.00000000    0.00000000    0.00000000
     atom   53 type  2   force =     0.00000000    0.00000000    0.00000000
     atom   54 type  2   force =     0.00000000    0.00000000    0.00000000
     atom   55 type  2   force =     0.00000000    0.00000000    0.00000000
     atom   56 type  2   force =     0.00000000    0.00000000    0.00000000
     atom   57 type  2   force =     0.00000000    0.00000000    0.00000000
     atom   58 type  2   force =     0.00000000    0.00000000    0.00000000
     atom   59 type  2   force =     0.00000000    0.00000000    0.00000000
     atom   60 type  2   force =     0.00000000    0.00000000    0.00000000
     atom   61 type  1   force =     0.00000000    0.00000000    0.00000000
     atom   62 type  1   force =     0.00000000    0.00000000    0.00000000
     atom   63 type  1   force =     0.00000000    0.00000000    0.00000000
     atom   64 type  1   force =     0.00000000    0.00000000    0.00000000
     atom   65 type  1   force =     0.00000000    0.00000000    0.00000000
     atom   66 type  1   force =     0.00000000    0.00000000    0.00000000
     atom   67 type  2   force =     0.00000000    0.00000000    0.00000000
     atom   68 type  2   force =     0.00000000    0.00000000    0.00000000
     atom   69 type  2   force =     0.00000000    0.00000000    0.00000000
     atom   70 type  2   force =     0.00000000    0.00000000    0.00000000
     atom   71 type  2   force =     0.00000000    0.00000000    0.00000000
     atom   72 type  2   force =     0.00000000    0.00000000    0.00000000
     atom   73 type  2   force =     0.00000000    0.00000000    0.00000000
     atom   74 type  2   force =     0.00000000    0.00000000    0.00000000
     atom   75 type  2   force =     0.00000000    0.00000000    0.00000000
     atom   76 type  1   force =     0.00000000    0.00000000    0.00000000
     atom   77 type  1   force =     0.00000000    0.00000000    0.00000000
     atom   78 type  1   force =     0.00000000    0.00000000    0.00000000
     atom   79 type  1   force =     0.00000000    0.00000000    0.00000000
     atom   80 type  1   force =     0.00000000    0.00000000    0.00000000
     atom   81 type  1   force =     0.00000000    0.00000000    0.00000000
     atom   82 type  2   force =     0.00000000    0.00000000    0.00000000
     atom   83 type  2   force =     0.00000000    0.00000000    0.00000000
     atom   84 type  2   force =     0.00000000    0.00000000    0.00000000
     atom   85 type  2   force =     0.00000000    0.00000000    0.00000000
     atom   86 type  2   force =     0.00000000    0.00000000    0.00000000
     atom   87 type  2   force =     0.00000000    0.00000000    0.00000000
     atom   88 type  2   force =     0.00000000    0.00000000    0.00000000
     atom   89 type  2   force =     0.00000000    0.00000000    0.00000000
     atom   90 type  2   force =     0.00000000    0.00000000    0.00000000
     atom   91 type  1   force =     0.00000000    0.00000000    0.00000000
     atom   92 type  1   force =     0.00000000    0.00000000    0.00000000
     atom   93 type  1   force =     0.00000000    0.00000000    0.00000000
     atom   94 type  1   force =     0.00000000    0.00000000    0.00000000
     atom   95 type  1   force =     0.00000000    0.00000000    0.00000000
     atom   96 type  1   force =     0.00000000    0.00000000    0.00000000
     atom   97 type  2   force =     0.00000000    0.00000000    0.00000000
     atom   98 type  2   force =     0.00000000    0.00000000    0.00000000
     atom   99 type  2   force =     0.00000000    0.00000000    0.00000000
     atom  100 type  2   force =     0.00000000    0.00000000    0.00000000
     atom  101 type  2   force =     0.00000000    0.00000000    0.00000000
     atom  102 type  2   force =     0.00000000    0.00000000    0.00000000
     atom  103 type  2   force =     0.00000000    0.00000000    0.00000000
     atom  104 type  2   force =     0.00000000    0.00000000    0.00000000
     atom  105 type  2   force =     0.00000000    0.00000000    0.00000000
     atom  106 type  1   force =     0.00000000    0.00000000    0.00000000
     atom  107 type  1   force =     0.00000000    0.00000000    0.00000000
     atom  108 type  1   force =     0.00000000    0.00000000    0.00000000
     atom  109 type  1   force =     0.00000000    0.00000000    0.00000000
     atom  110 type  1   force =     0.00000000    0.00000000    0.00000000
     atom  111 type  1   force =     0.00000000    0.00000000    0.00000000
     atom  112 type  2   force =     0.00000000    0.00000000    0.00000000
     atom  113 type  2   force =     0.00000000    0.00000000    0.00000000
     atom  114 type  2   force =     0.00000000    0.00000000    0.00000000
     atom  115 type  2   force =     0.00000000    0.00000000    0.00000000
     atom  116 type  2   force =     0.00000000    0.00000000    0.00000000
     atom  117 type  2   force =     0.00000000    0.00000000    0.00000000
     atom  118 type  2   force =     0.00000000    0.00000000    0.00000000
     atom  119 type  2   force =     0.00000000    0.00000000    0.00000000
     atom  120 type  2   force =     0.00000000    0.00000000    0.00000000
     atom  121 type  1   force =     0.00000000    0.00000000    0.00000000
     atom  122 type  1   force =     0.00000000    0.00000000    0.00000000
     atom  123 type  1   force =     0.00000000    0.00000000    0.00000000
     atom  124 type  1   force =     0.00000000    0.00000000    0.00000000
     atom  125 type  1   force =     0.00000000    0.00000000    0.00000000
     atom  126 type  1   force =     0.00000000    0.00000000    0.00000000
     atom  127 type  2   force =     0.00000000    0.00000000    0.00000000
     atom  128 type  2   force =     0.00000000    0.00000000    0.00000000
     atom  129 type  2   force =     0.00000000    0.00000000    0.00000000
     atom  130 type  2   force =     0.00000000    0.00000000    0.00000000
     atom  131 type  2   force =     0.00000000    0.00000000    0.00000000
     atom  132 type  2   force =     0.00000000    0.00000000    0.00000000
     atom  133 type  2   force =     0.00000000    0.00000000    0.00000000
     atom  134 type  2   force =     0.00000000    0.00000000    0.00000000
     atom  135 type  2   force =     0.00000000    0.00000000    0.00000000
     atom  136 type  3   force =     0.00000000    0.00000000    0.00000000
     atom  137 type  4   force =     0.00000000    0.00000000    0.00000000
     atom  138 type  4   force =     0.00000000    0.00000000    0.00000000
     atom  139 type  3   force =     0.00000000    0.00000000    0.00000000
     atom  140 type  4   force =     0.00000000    0.00000000    0.00000000
     atom  141 type  4   force =     0.00000000    0.00000000    0.00000000
     atom  142 type  3   force =     0.00000000    0.00000000    0.00000000
     atom  143 type  4   force =     0.00000000    0.00000000    0.00000000
     atom  144 type  4   force =     0.00000000    0.00000000    0.00000000
     atom  145 type  3   force =     0.00000000    0.00000000    0.00000000
     atom  146 type  4   force =     0.00000000    0.00000000    0.00000000
     atom  147 type  4   force =     0.00000000    0.00000000    0.00000000
     atom  148 type  3   force =     0.00000000    0.00000000    0.00000000
     atom  149 type  4   force =     0.00000000    0.00000000    0.00000000
     atom  150 type  4   force =     0.00000000    0.00000000    0.00000000
     atom  151 type  3   force =     0.00000000    0.00000000    0.00000000
     atom  152 type  4   force =     0.00000000    0.00000000    0.00000000
     atom  153 type  4   force =     0.00000000    0.00000000    0.00000000
     atom  154 type  3   force =     0.00000000    0.00000000    0.00000000
     atom  155 type  4   force =     0.00000000    0.00000000    0.00000000
     atom  156 type  4   force =     0.00000000    0.00000000    0.00000000
     atom  157 type  3   force =     0.00000000    0.00000000    0.00000000
     atom  158 type  4   force =     0.00000000    0.00000000    0.00000000
     atom  159 type  4   force =     0.00000000    0.00000000    0.00000000
     atom  160 type  3   force =     0.00000000    0.00000000    0.00000000
     atom  161 type  4   force =     0.00000000    0.00000000    0.00000000
     atom  162 type  4   force =     0.00000000    0.00000000    0.00000000
     atom  163 type  3   force =     0.00000000    0.00000000    0.00000000
     atom  164 type  4   force =     0.00000000    0.00000000    0.00000000
     atom  165 type  4   force =     0.00000000    0.00000000    0.00000000
     atom  166 type  3   force =     0.00000000    0.00000000    0.00000000
     atom  167 type  4   force =     0.00000000    0.00000000    0.00000000
     atom  168 type  4   force =     0.00000000    0.00000000    0.00000000
     atom  169 type  3   force =     0.00000000    0.00000000    0.00000000
     atom  170 type  4   force =     0.00000000    0.00000000    0.00000000
     atom  171 type  4   force =     0.00000000    0.00000000    0.00000000
     atom  172 type  3   force =     0.00000000    0.00000000    0.00000000
     atom  173 type  4   force =     0.00000000    0.00000000    0.00000000
     atom  174 type  4   force =     0.00000000    0.00000000    0.00000000
     atom  175 type  3   force =     0.00000000    0.00000000    0.00000000
     atom  176 type  4   force =     0.00000000    0.00000000    0.00000000
     atom  177 type  4   force =     0.00000000    0.00000000    0.00000000
     atom  178 type  3   force =     0.00000000    0.00000000    0.00000000
     atom  179 type  4   force =     0.00000000    0.00000000    0.00000000
     atom  180 type  4   force =     0.00000000    0.00000000    0.00000000
     atom  181 type  3   force =     0.00000000    0.00000000    0.00000000
     atom  182 type  4   force =     0.00000000    0.00000000    0.00000000
     atom  183 type  4   force =     0.00000000    0.00000000    0.00000000
     atom  184 type  5   force =     0.00000000    0.00000000    0.00000000
     atom  185 type  5   force =     0.00000000    0.00000000    0.00000000
     atom  186 type  5   force =     0.00000000    0.00000000    0.00000000
     atom  187 type  5   force =     0.00000000    0.00000000    0.00000000
     atom  188 type  5   force =     0.00000000    0.00000000    0.00000000
     atom  189 type  5   force =     0.00000000    0.00000000    0.00000000
     atom  190 type  5   force =     0.00000000    0.00000000    0.00000000
     atom  191 type  5   force =     0.00000000    0.00000000    0.00000000
     atom  192 type  5   force =     0.00000000    0.00000000    0.00000000
     atom  193 type  5   force =     0.00000000    0.00000000    0.00000000
     atom  194 type  5   force =     0.00000000    0.00000000    0.00000000
     atom  195 type  5   force =     0.00000000    0.00000000    0.00000000
     atom  196 type  5   force =     0.00000000    0.00000000    0.00000000
     atom  197 type  5   force =     0.00000000    0.00000000    0.00000000
     atom  198 type  5   force =     0.00000000    0.00000000    0.00000000
     atom  199 type  5   force =     0.00000000    0.00000000    0.00000000
     atom  200 type  5   force =     0.00000000    0.00000000    0.00000000
     atom  201 type  5   force =     0.00000000    0.00000000    0.00000000
     atom  202 type  5   force =     0.00000000    0.00000000    0.00000000
     atom  203 type  5   force =     0.00000000    0.00000000    0.00000000
     atom  204 type  5   force =     0.00000000    0.00000000    0.00000000
     atom  205 type  5   force =     0.00000000    0.00000000    0.00000000
     atom  206 type  5   force =     0.00000000    0.00000000    0.00000000
     atom  207 type  5   force =     0.00000000    0.00000000    0.00000000
     atom  208 type  5   force =     0.00000000    0.00000000    0.00000000
     atom  209 type  5   force =     0.00000000    0.00000000    0.00000000
     atom  210 type  5   force =     0.00000000    0.00000000    0.00000000
     atom  211 type  5   force =     0.00000000    0.00000000    0.00000000
     atom  212 type  5   force =     0.00000000    0.00000000    0.00000000
     atom  213 type  5   force =     0.00000000    0.00000000    0.00000000
     atom  214 type  5   force =     0.00000000    0.00000000    0.00000000
     atom  215 type  6   force =     0.00000000    0.00000000    0.00000000
     atom  216 type  6   force =     0.00000000    0.00000000    0.00000000
     atom  217 type  6   force =     0.00000000    0.00000000    0.00000000
     atom  218 type  6   force =     0.00000000    0.00000000    0.00000000
     atom  219 type  6   force =     0.00000000    0.00000000    0.00000000
     atom  220 type  6   force =     0.00000000    0.00000000    0.00000000
     atom  221 type  6   force =     0.00000000    0.00000000    0.00000000
     atom  222 type  6   force =     0.00000000    0.00000000    0.00000000
     atom  223 type  6   force =     0.00000000    0.00000000    0.00000000
     atom  224 type  6   force =     0.00000000    0.00000000    0.00000000
     atom  225 type  6   force =     0.00000000    0.00000000    0.00000000
     atom  226 type  6   force =     0.00000000    0.00000000    0.00000000
     atom  227 type  6   force =     0.00000000    0.00000000    0.00000000
     atom  228 type  6   force =     0.00000000    0.00000000    0.00000000
     atom  229 type  6   force =     0.00000000    0.00000000    0.00000000
     atom  230 type  6   force =     0.00000000    0.00000000    0.00000000
     atom  231 type  6   force =     0.00000000    0.00000000    0.00000000
     atom  232 type  6   force =     0.00000000    0.00000000    0.00000000
     atom  233 type  6   force =     0.00000000    0.00000000    0.00000000
     atom  234 type  6   force =     0.00000000    0.00000000    0.00000000
     atom  235 type  6   force =     0.00000000    0.00000000    0.00000000
     atom  236 type  6   force =     0.00000000    0.00000000    0.00000000
     atom  237 type  6   force =     0.00000000    0.00000000    0.00000000
     atom  238 type  6   force =     0.00000000    0.00000000    0.00000000
     atom  239 type  6   force =     0.00000000    0.00000000    0.00000000
     atom  240 type  6   force =     0.00000000    0.00000000    0.00000000
     atom  241 type  6   force =     0.00000000    0.00000000    0.00000000
     atom  242 type  6   force =     0.00000000    0.00000000    0.00000000
     atom  243 type  6   force =     0.00000000    0.00000000    0.00000000
     atom  244 type  6   force =     0.00000000    0.00000000    0.00000000
     atom  245 type  6   force =     0.00000000    0.00000000    0.00000000
     The SCF correction term to forces
     atom    1 type  1   force =     0.00000230    0.00000191   -0.00001732
     atom    2 type  1   force =    -0.00000149    0.00000199   -0.00000600
     atom    3 type  1   force =     0.00000238    0.00000420   -0.00001442
     atom    4 type  1   force =     0.00000103    0.00000283   -0.00000108
     atom    5 type  1   force =     0.00000088    0.00000056    0.00000147
     atom    6 type  1   force =    -0.00000081    0.00000434   -0.00000587
     atom    7 type  2   force =     0.00000125    0.00000003   -0.00002095
     atom    8 type  2   force =     0.00000495    0.00000230   -0.00002212
     atom    9 type  2   force =     0.00001099    0.00001137   -0.00002084
     atom   10 type  2   force =    -0.00000093    0.00000219    0.00000292
     atom   11 type  2   force =    -0.00000295    0.00000175   -0.00000015
     atom   12 type  2   force =    -0.00000015    0.00000572    0.00000253
     atom   13 type  2   force =     0.00000643    0.00000154   -0.00001782
     atom   14 type  2   force =    -0.00000280    0.00000766   -0.00002329
     atom   15 type  2   force =     0.00000080    0.00000821   -0.00001644
     atom   16 type  1   force =    -0.00000390   -0.00000146   -0.00001656
     atom   17 type  1   force =    -0.00000103   -0.00000216   -0.00000603
     atom   18 type  1   force =    -0.00000175    0.00000213   -0.00001648
     atom   19 type  1   force =    -0.00000133    0.00000079   -0.00000614
     atom   20 type  1   force =    -0.00000132   -0.00000077    0.00000051
     atom   21 type  1   force =    -0.00000082   -0.00000569   -0.00000567
     atom   22 type  2   force =    -0.00000982   -0.00000949   -0.00001464
     atom   23 type  2   force =    -0.00000562   -0.00001117   -0.00002007
     atom   24 type  2   force =    -0.00001058    0.00000597   -0.00002108
     atom   25 type  2   force =    -0.00000435   -0.00000523    0.00000189
     atom   26 type  2   force =    -0.00000093   -0.00000329    0.00000603
     atom   27 type  2   force =     0.00000095   -0.00000162    0.00000114
     atom   28 type  2   force =    -0.00000375    0.00000103   -0.00001773
     atom   29 type  2   force =     0.00000376   -0.00000670   -0.00002136
     atom   30 type  2   force =    -0.00000306   -0.00000369   -0.00002237
     atom   31 type  1   force =     0.00000037   -0.00000036   -0.00001399
     atom   32 type  1   force =     0.00000350   -0.00000017   -0.00000383
     atom   33 type  1   force =     0.00000261   -0.00000280   -0.00001507
     atom   34 type  1   force =     0.00000284   -0.00000175   -0.00000262
     atom   35 type  1   force =    -0.00000169   -0.00000055    0.00000100
     atom   36 type  1   force =     0.00000194    0.00000019   -0.00000769
     atom   37 type  2   force =    -0.00001098   -0.00000628   -0.00002296
     atom   38 type  2   force =     0.00000328    0.00000016   -0.00001035
     atom   39 type  2   force =    -0.00000080   -0.00000617   -0.00001063
     atom   40 type  2   force =     0.00000148    0.00000074    0.00000167
     atom   41 type  2   force =     0.00000275    0.00000053    0.00000629
     atom   42 type  2   force =     0.00000346   -0.00000237    0.00000583
     atom   43 type  2   force =    -0.00000445   -0.00000264   -0.00002126
     atom   44 type  2   force =     0.00000791    0.00000167   -0.00001138
     atom   45 type  2   force =     0.00000444   -0.00000172   -0.00001925
     atom   46 type  1   force =     0.00000049    0.00000407   -0.00001654
     atom   47 type  1   force =     0.00000152    0.00000046   -0.00000633
     atom   48 type  1   force =     0.00000093    0.00000284   -0.00001445
     atom   49 type  1   force =     0.00000071    0.00000012   -0.00000407
     atom   50 type  1   force =    -0.00000026    0.00000112   -0.00000060
     atom   51 type  1   force =     0.00000321   -0.00000244   -0.00000617
     atom   52 type  2   force =    -0.00000629    0.00001325   -0.00001572
     atom   53 type  2   force =     0.00000788    0.00000161   -0.00002275
     atom   54 type  2   force =    -0.00000357    0.00001195   -0.00001525
     atom   55 type  2   force =     0.00000209    0.00000084   -0.00000205
     atom   56 type  2   force =     0.00000104   -0.00000179   -0.00000021
     atom   57 type  2   force =     0.00000267    0.00000086    0.00000260
     atom   58 type  2   force =    -0.00000291    0.00000868   -0.00001983
     atom   59 type  2   force =     0.00000215    0.00000168   -0.00001898
     atom   60 type  2   force =     0.00000326    0.00000346   -0.00001886
     atom   61 type  1   force =     0.00000037   -0.00000550   -0.00001269
     atom   62 type  1   force =    -0.00000185   -0.00000371   -0.00000498
     atom   63 type  1   force =    -0.00000214   -0.00000170   -0.00001432
     atom   64 type  1   force =     0.00000027    0.00000001   -0.00000387
     atom   65 type  1   force =     0.00000112   -0.00000277    0.00000101
     atom   66 type  1   force =    -0.00000326   -0.00000356   -0.00000758
     atom   67 type  2   force =     0.00000667   -0.00002063   -0.00001474
     atom   68 type  2   force =     0.00000066   -0.00001613   -0.00002011
     atom   69 type  2   force =     0.00000520   -0.00000711   -0.00001238
     atom   70 type  2   force =    -0.00000089   -0.00000595    0.00000733
     atom   71 type  2   force =    -0.00000251   -0.00000523    0.00000712
     atom   72 type  2   force =    -0.00000124   -0.00000431    0.00000298
     atom   73 type  2   force =     0.00000401   -0.00000742   -0.00001922
     atom   74 type  2   force =    -0.00000606   -0.00000690   -0.00002099
     atom   75 type  2   force =    -0.00000131   -0.00000657   -0.00001475
     atom   76 type  1   force =    -0.00000412    0.00000045   -0.00001389
     atom   77 type  1   force =    -0.00000238    0.00000258   -0.00000595
     atom   78 type  1   force =    -0.00000401   -0.00000257   -0.00001467
     atom   79 type  1   force =    -0.00000246   -0.00000204   -0.00000425
     atom   80 type  1   force =    -0.00000142    0.00000021    0.00000285
     atom   81 type  1   force =    -0.00000286    0.00000142   -0.00000661
     atom   82 type  2   force =    -0.00001643   -0.00000286   -0.00002253
     atom   83 type  2   force =    -0.00000214    0.00000462   -0.00001673
     atom   84 type  2   force =    -0.00000865    0.00000096   -0.00001589
     atom   85 type  2   force =    -0.00000426    0.00000492    0.00000480
     atom   86 type  2   force =    -0.00000262    0.00000258    0.00000188
     atom   87 type  2   force =    -0.00000439    0.00000176    0.00000460
     atom   88 type  2   force =    -0.00000703   -0.00000422   -0.00001158
     atom   89 type  2   force =    -0.00000207    0.00000163   -0.00001711
     atom   90 type  2   force =    -0.00000562    0.00000078   -0.00001942
     atom   91 type  1   force =    -0.00000190    0.00000775   -0.00001428
     atom   92 type  1   force =    -0.00000050    0.00000226   -0.00000759
     atom   93 type  1   force =    -0.00000417    0.00000644   -0.00001342
     atom   94 type  1   force =    -0.00000218    0.00000371   -0.00000450
     atom   95 type  1   force =    -0.00000053    0.00000376    0.00000055
     atom   96 type  1   force =    -0.00000143    0.00000415   -0.00000432
     atom   97 type  2   force =    -0.00000467    0.00001697   -0.00001605
     atom   98 type  2   force =    -0.00000215    0.00001384   -0.00001117
     atom   99 type  2   force =    -0.00000983    0.00002320   -0.00001766
     atom  100 type  2   force =    -0.00000108    0.00000458    0.00000274
     atom  101 type  2   force =    -0.00000044   -0.00000118   -0.00000001
     atom  102 type  2   force =    -0.00000265    0.00000601   -0.00000180
     atom  103 type  2   force =    -0.00000203    0.00001252   -0.00001636
     atom  104 type  2   force =    -0.00000002    0.00000096   -0.00002194
     atom  105 type  2   force =    -0.00000407    0.00001084   -0.00001849
     atom  106 type  1   force =     0.00000311   -0.00000397   -0.00001887
     atom  107 type  1   force =     0.00000278   -0.00000393   -0.00000282
     atom  108 type  1   force =     0.00000323   -0.00000508   -0.00001597
     atom  109 type  1   force =     0.00000114   -0.00000135   -0.00000519
     atom  110 type  1   force =     0.00000099   -0.00000097   -0.00000007
     atom  111 type  1   force =     0.00000506   -0.00000342   -0.00000878
     atom  112 type  2   force =    -0.00000321   -0.00000858   -0.00002099
     atom  113 type  2   force =     0.00001743   -0.00001393   -0.00002272
     atom  114 type  2   force =     0.00000340    0.00000011   -0.00001798
     atom  115 type  2   force =     0.00000288   -0.00000258    0.00000489
     atom  116 type  2   force =     0.00000593   -0.00000378    0.00000811
     atom  117 type  2   force =     0.00000322   -0.00000453    0.00000587
     atom  118 type  2   force =     0.00000015    0.00000072   -0.00002587
     atom  119 type  2   force =     0.00000144   -0.00001181   -0.00001285
     atom  120 type  2   force =     0.00000608   -0.00001022   -0.00001946
     atom  121 type  1   force =     0.00000487   -0.00000161   -0.00001530
     atom  122 type  1   force =    -0.00000076    0.00000286   -0.00000220
     atom  123 type  1   force =     0.00000038   -0.00000334   -0.00001392
     atom  124 type  1   force =    -0.00000015   -0.00000254   -0.00000035
     atom  125 type  1   force =     0.00000233   -0.00000048    0.00000408
     atom  126 type  1   force =    -0.00000032    0.00000253   -0.00001006
     atom  127 type  2   force =     0.00000852   -0.00000818   -0.00002538
     atom  128 type  2   force =     0.00001610    0.00000055   -0.00002666
     atom  129 type  2   force =     0.00000911   -0.00000057   -0.00002942
     atom  130 type  2   force =     0.00000324    0.00000262    0.00000998
     atom  131 type  2   force =    -0.00000149    0.00000521    0.00000567
     atom  132 type  2   force =    -0.00000001    0.00000074    0.00000928
     atom  133 type  2   force =     0.00000985   -0.00000463   -0.00001475
     atom  134 type  2   force =    -0.00000813    0.00000722   -0.00001272
     atom  135 type  2   force =     0.00000144   -0.00000211   -0.00001070
     atom  136 type  3   force =     0.00000163   -0.00000012    0.00001810
     atom  137 type  4   force =    -0.00000211    0.00000131    0.00000745
     atom  138 type  4   force =    -0.00000325    0.00000118    0.00001009
     atom  139 type  3   force =     0.00000288    0.00000549    0.00001539
     atom  140 type  4   force =    -0.00000269    0.00000011    0.00000447
     atom  141 type  4   force =    -0.00000328   -0.00000057    0.00001416
     atom  142 type  3   force =     0.00000525    0.00000263    0.00001603
     atom  143 type  4   force =    -0.00000079   -0.00000248    0.00000533
     atom  144 type  4   force =     0.00000021   -0.00000300    0.00001322
     atom  145 type  3   force =     0.00000496    0.00000010    0.00002433
     atom  146 type  4   force =     0.00000100   -0.00000165    0.00000710
     atom  147 type  4   force =     0.00000172   -0.00000037    0.00001039
     atom  148 type  3   force =    -0.00000586   -0.00000937    0.00001529
     atom  149 type  4   force =    -0.00000063   -0.00000133    0.00001035
     atom  150 type  4   force =     0.00000111   -0.00000221    0.00000613
     atom  151 type  3   force =    -0.00000965   -0.00000066    0.00002407
     atom  152 type  4   force =    -0.00000140    0.00000028    0.00000889
     atom  153 type  4   force =    -0.00000114    0.00000079    0.00000953
     atom  154 type  3   force =    -0.00000913   -0.00000204    0.00001762
     atom  155 type  4   force =    -0.00000358   -0.00000205    0.00000799
     atom  156 type  4   force =    -0.00000383   -0.00000182    0.00001283
     atom  157 type  3   force =    -0.00000681   -0.00000564    0.00001688
     atom  158 type  4   force =    -0.00000244   -0.00000165    0.00000798
     atom  159 type  4   force =    -0.00000283   -0.00000070    0.00000988
     atom  160 type  3   force =    -0.00000341   -0.00000553    0.00001653
     atom  161 type  4   force =     0.00000113    0.00000150    0.00001143
     atom  162 type  4   force =     0.00000080    0.00000167    0.00000395
     atom  163 type  3   force =    -0.00000327   -0.00000074    0.00001603
     atom  164 type  4   force =     0.00000151    0.00000143    0.00001049
     atom  165 type  4   force =     0.00000186    0.00000129    0.00000571
     atom  166 type  3   force =    -0.00000337    0.00000317    0.00001679
     atom  167 type  4   force =     0.00000196   -0.00000130    0.00000925
     atom  168 type  4   force =     0.00000295   -0.00000166    0.00001024
     atom  169 type  3   force =    -0.00000194   -0.00000471    0.00001758
     atom  170 type  4   force =    -0.00000071    0.00000075    0.00001157
     atom  171 type  4   force =    -0.00000173    0.00000110    0.00000700
     atom  172 type  3   force =     0.00000737    0.00000141    0.00002413
     atom  173 type  4   force =     0.00000158    0.00000408    0.00000865
     atom  174 type  4   force =     0.00000130    0.00000609    0.00000804
     atom  175 type  3   force =     0.00001074    0.00000606    0.00001590
     atom  176 type  4   force =     0.00000265    0.00000207    0.00000729
     atom  177 type  4   force =     0.00000281    0.00000145    0.00000855
     atom  178 type  3   force =     0.00000678    0.00000806    0.00001655
     atom  179 type  4   force =     0.00000216   -0.00000075    0.00000780
     atom  180 type  4   force =     0.00000089   -0.00000187    0.00000992
     atom  181 type  3   force =     0.00000446    0.00000218    0.00001623
     atom  182 type  4   force =     0.00000203   -0.00000060    0.00000909
     atom  183 type  4   force =     0.00000299   -0.00000111    0.00000933
     atom  184 type  5   force =     0.00000036    0.00000045    0.00001417
     atom  185 type  5   force =     0.00000021    0.00000007    0.00001440
     atom  186 type  5   force =    -0.00000078   -0.00000073    0.00001430
     atom  187 type  5   force =    -0.00000022    0.00000074    0.00001413
     atom  188 type  5   force =    -0.00000024   -0.00000009    0.00001407
     atom  189 type  5   force =    -0.00000001   -0.00000025    0.00001399
     atom  190 type  5   force =     0.00000047    0.00000023    0.00001405
     atom  191 type  5   force =     0.00000049   -0.00000021    0.00001412
     atom  192 type  5   force =     0.00000049   -0.00000041    0.00001416
     atom  193 type  5   force =     0.00000051    0.00000005    0.00001421
     atom  194 type  5   force =    -0.00000003   -0.00000035    0.00001416
     atom  195 type  5   force =    -0.00000027    0.00000005    0.00001393
     atom  196 type  5   force =    -0.00000005   -0.00000005    0.00001387
     atom  197 type  5   force =     0.00000026   -0.00000061    0.00001388
     atom  198 type  5   force =     0.00000059    0.00000014    0.00001413
     atom  199 type  5   force =     0.00000050    0.00000026    0.00001425
     atom  200 type  5   force =    -0.00000012    0.00000013    0.00001407
     atom  201 type  5   force =    -0.00000012   -0.00000013    0.00001377
     atom  202 type  5   force =    -0.00000009   -0.00000060    0.00001356
     atom  203 type  5   force =     0.00000006   -0.00000019    0.00001381
     atom  204 type  5   force =    -0.00000012    0.00000052    0.00001419
     atom  205 type  5   force =     0.00000005    0.00000047    0.00001428
     atom  206 type  5   force =     0.00000069   -0.00000053    0.00001400
     atom  207 type  5   force =     0.00000054   -0.00000058    0.00001362
     atom  208 type  5   force =    -0.00000050   -0.00000001    0.00001357
     atom  209 type  5   force =    -0.00000039    0.00000064    0.00001391
     atom  210 type  5   force =    -0.00000033    0.00000065    0.00001430
     atom  211 type  5   force =    -0.00000089   -0.00000047    0.00001431
     atom  212 type  5   force =    -0.00000031   -0.00000017    0.00001399
     atom  213 type  5   force =    -0.00000045    0.00000092    0.00001380
     atom  214 type  5   force =    -0.00000031    0.00000006    0.00001381
     atom  215 type  6   force =    -0.00000078   -0.00000021    0.00002278
     atom  216 type  6   force =    -0.00000037    0.00000099    0.00002262
     atom  217 type  6   force =    -0.00000032   -0.00000002    0.00002226
     atom  218 type  6   force =     0.00000010    0.00000037    0.00002293
     atom  219 type  6   force =     0.00000055    0.00000006    0.00002269
     atom  220 type  6   force =    -0.00000011   -0.00000071    0.00002290
     atom  221 type  6   force =     0.00000012   -0.00000009    0.00002275
     atom  222 type  6   force =     0.00000046   -0.00000006    0.00002287
     atom  223 type  6   force =     0.00000003   -0.00000003    0.00002285
     atom  224 type  6   force =     0.00000020   -0.00000024    0.00002268
     atom  225 type  6   force =     0.00000084   -0.00000063    0.00002241
     atom  226 type  6   force =     0.00000107   -0.00000068    0.00002268
     atom  227 type  6   force =     0.00000071    0.00000012    0.00002282
     atom  228 type  6   force =     0.00000008    0.00000044    0.00002279
     atom  229 type  6   force =    -0.00000020   -0.00000010    0.00002217
     atom  230 type  6   force =    -0.00000023   -0.00000090    0.00002201
     atom  231 type  6   force =     0.00000014   -0.00000054    0.00002193
     atom  232 type  6   force =     0.00000035    0.00000031    0.00002223
     atom  233 type  6   force =     0.00000028    0.00000106    0.00002306
     atom  234 type  6   force =     0.00000041   -0.00000021    0.00002281
     atom  235 type  6   force =     0.00000067   -0.00000094    0.00002216
     atom  236 type  6   force =    -0.00000015   -0.00000032    0.00002158
     atom  237 type  6   force =    -0.00000073    0.00000012    0.00002213
     atom  238 type  6   force =    -0.00000017    0.00000096    0.00002269
     atom  239 type  6   force =    -0.00000023    0.00000025    0.00002296
     atom  240 type  6   force =    -0.00000023   -0.00000063    0.00002267
     atom  241 type  6   force =    -0.00000022    0.00000012    0.00002209
     atom  242 type  6   force =    -0.00000056    0.00000073    0.00002207
     atom  243 type  6   force =    -0.00000048    0.00000037    0.00002245
     atom  244 type  6   force =    -0.00000016    0.00000098    0.00002314
     atom  245 type  6   force =    -0.00000102   -0.00000052    0.00002326

     DFT-D3 dispersion contribution to forces:
     atom    1 type  1   force =    -0.00000000    0.00000005    0.00215217
     atom    2 type  1   force =     0.00001045   -0.00000504   -0.00008475
     atom    3 type  1   force =    -0.00000074   -0.00000041    0.00303686
     atom    4 type  1   force =    -0.00004781   -0.00002777   -0.00018693
     atom    5 type  1   force =     0.00000012    0.00000058   -0.00022505
     atom    6 type  1   force =    -0.00000001   -0.00000000    0.00406237
     atom    7 type  2   force =     0.00004993   -0.00000756    0.00153772
     atom    8 type  2   force =    -0.00001843    0.00004702    0.00153772
     atom    9 type  2   force =    -0.00003150   -0.00003947    0.00153772
     atom   10 type  2   force =    -0.00000174   -0.00007057   -0.00035081
     atom   11 type  2   force =     0.00004025    0.00011661   -0.00038662
     atom   12 type  2   force =    -0.00009296   -0.00001388   -0.00029210
     atom   13 type  2   force =    -0.00016600   -0.00007406    0.00011421
     atom   14 type  2   force =     0.00014728   -0.00010707    0.00011704
     atom   15 type  2   force =     0.00001886    0.00018082    0.00011424
     atom   16 type  1   force =     0.00000041    0.00000214    0.00216003
     atom   17 type  1   force =     0.00002646    0.00001597   -0.00011426
     atom   18 type  1   force =    -0.00000015   -0.00000017    0.00303820
     atom   19 type  1   force =    -0.00003454    0.00002020   -0.00012435
     atom   20 type  1   force =    -0.00003055   -0.00001208   -0.00011736
     atom   21 type  1   force =    -0.00000013   -0.00000012    0.00406290
     atom   22 type  2   force =     0.00005001   -0.00000757    0.00153759
     atom   23 type  2   force =    -0.00001844    0.00004713    0.00153759
     atom   24 type  2   force =    -0.00003162   -0.00003962    0.00153763
     atom   25 type  2   force =     0.00001487   -0.00001816   -0.00030574
     atom   26 type  2   force =     0.00001470    0.00009536   -0.00029439
     atom   27 type  2   force =    -0.00006469   -0.00008674   -0.00035338
     atom   28 type  2   force =    -0.00016708   -0.00007306    0.00011602
     atom   29 type  2   force =     0.00014834   -0.00010779    0.00011718
     atom   30 type  2   force =     0.00001947    0.00018210    0.00011774
     atom   31 type  1   force =     0.00000292   -0.00000093    0.00215935
     atom   32 type  1   force =    -0.00000023    0.00001152   -0.00008540
     atom   33 type  1   force =     0.00000024   -0.00000006    0.00303818
     atom   34 type  1   force =     0.00000024   -0.00004025   -0.00012453
     atom   35 type  1   force =    -0.00001711   -0.00002026   -0.00011436
     atom   36 type  1   force =     0.00000001   -0.00000001    0.00406237
     atom   37 type  2   force =     0.00005003   -0.00000750    0.00153763
     atom   38 type  2   force =    -0.00001850    0.00004709    0.00153755
     atom   39 type  2   force =    -0.00003173   -0.00003951    0.00153763
     atom   40 type  2   force =     0.00005886   -0.00007360   -0.00029212
     atom   41 type  2   force =     0.00006230    0.00003406   -0.00035100
     atom   42 type  2   force =    -0.00012075   -0.00002378   -0.00038702
     atom   43 type  2   force =    -0.00016638   -0.00007387    0.00011867
     atom   44 type  2   force =     0.00014686   -0.00010819    0.00011581
     atom   45 type  2   force =     0.00001911    0.00018107    0.00011702
     atom   46 type  1   force =     0.00000161   -0.00000134    0.00215959
     atom   47 type  1   force =    -0.00001018   -0.00000557   -0.00008487
     atom   48 type  1   force =     0.00000072   -0.00000044    0.00303688
     atom   49 type  1   force =     0.00004808   -0.00002758   -0.00018682
     atom   50 type  1   force =     0.00000458    0.00003327   -0.00011818
     atom   51 type  1   force =    -0.00000000    0.00000002    0.00406237
     atom   52 type  2   force =     0.00005003   -0.00000760    0.00153759
     atom   53 type  2   force =    -0.00001850    0.00004719    0.00153763
     atom   54 type  2   force =    -0.00003156   -0.00003953    0.00153758
     atom   55 type  2   force =     0.00008061   -0.00009257   -0.00038705
     atom   56 type  2   force =     0.00003414    0.00008812   -0.00029173
     atom   57 type  2   force =    -0.00006065    0.00003711   -0.00035084
     atom   58 type  2   force =    -0.00016662   -0.00007446    0.00011936
     atom   59 type  2   force =     0.00014713   -0.00010669    0.00011433
     atom   60 type  2   force =     0.00002024    0.00018128    0.00011583
     atom   61 type  1   force =    -0.00000071    0.00000297    0.00215961
     atom   62 type  1   force =     0.00000026    0.00001388   -0.00006165
     atom   63 type  1   force =     0.00000002    0.00000088    0.00303708
     atom   64 type  1   force =    -0.00000022    0.00005628   -0.00018577
     atom   65 type  1   force =     0.00002500   -0.00000461   -0.00011396
     atom   66 type  1   force =    -0.00000001   -0.00000013    0.00406247
     atom   67 type  2   force =     0.00005008   -0.00000772    0.00153763
     atom   68 type  2   force =    -0.00001852    0.00004708    0.00153763
     atom   69 type  2   force =    -0.00003153   -0.00003957    0.00153754
     atom   70 type  2   force =     0.00002085    0.00000430   -0.00040668
     atom   71 type  2   force =     0.00000635    0.00004863   -0.00031048
     atom   72 type  2   force =    -0.00002327   -0.00004169   -0.00031424
     atom   73 type  2   force =    -0.00016639   -0.00007397    0.00011711
     atom   74 type  2   force =     0.00014780   -0.00010708    0.00011968
     atom   75 type  2   force =     0.00001932    0.00018276    0.00011729
     atom   76 type  1   force =    -0.00000001   -0.00000010    0.00216437
     atom   77 type  1   force =     0.00001200   -0.00000771   -0.00006313
     atom   78 type  1   force =     0.00000074   -0.00000013    0.00304206
     atom   79 type  1   force =     0.00000863    0.00000663   -0.00011765
     atom   80 type  1   force =    -0.00000020   -0.00000140    0.00000081
     atom   81 type  1   force =    -0.00000011    0.00000007    0.00406247
     atom   82 type  2   force =     0.00005024   -0.00000760    0.00153734
     atom   83 type  2   force =    -0.00001853    0.00004730    0.00153734
     atom   84 type  2   force =    -0.00003171   -0.00003970    0.00153734
     atom   85 type  2   force =     0.00003905   -0.00003012   -0.00031102
     atom   86 type  2   force =    -0.00002446    0.00004115   -0.00031482
     atom   87 type  2   force =    -0.00000666   -0.00002096   -0.00040711
     atom   88 type  2   force =    -0.00016721   -0.00007378    0.00012055
     atom   89 type  2   force =     0.00014858   -0.00010813    0.00011704
     atom   90 type  2   force =     0.00001974    0.00018162    0.00012047
     atom   91 type  1   force =    -0.00000220   -0.00000202    0.00215921
     atom   92 type  1   force =     0.00000088   -0.00003025   -0.00011487
     atom   93 type  1   force =    -0.00000045   -0.00000058    0.00304181
     atom   94 type  1   force =     0.00000185   -0.00001091   -0.00011880
     atom   95 type  1   force =    -0.00000798    0.00002524   -0.00011490
     atom   96 type  1   force =    -0.00000004    0.00000018    0.00406290
     atom   97 type  2   force =     0.00005003   -0.00000752    0.00153754
     atom   98 type  2   force =    -0.00001835    0.00004724    0.00153763
     atom   99 type  2   force =    -0.00003151   -0.00003957    0.00153763
     atom  100 type  2   force =     0.00007539   -0.00006009   -0.00029440
     atom  101 type  2   force =    -0.00004276    0.00009971   -0.00035346
     atom  102 type  2   force =    -0.00002312   -0.00000348   -0.00030614
     atom  103 type  2   force =    -0.00016791   -0.00007462    0.00011697
     atom  104 type  2   force =     0.00014796   -0.00010786    0.00011762
     atom  105 type  2   force =     0.00001926    0.00018106    0.00011850
     atom  106 type  1   force =    -0.00000000    0.00000002    0.00215955
     atom  107 type  1   force =    -0.00002726    0.00001448   -0.00011421
     atom  108 type  1   force =    -0.00000009    0.00000026    0.00303819
     atom  109 type  1   force =     0.00003432    0.00002070   -0.00012456
     atom  110 type  1   force =    -0.00000009    0.00000009   -0.00017067
     atom  111 type  1   force =     0.00000018   -0.00000006    0.00406290
     atom  112 type  2   force =     0.00004997   -0.00000758    0.00153784
     atom  113 type  2   force =    -0.00001843    0.00004707    0.00153784
     atom  114 type  2   force =    -0.00003155   -0.00003949    0.00153784
     atom  115 type  2   force =     0.00010752   -0.00001284   -0.00035352
     atom  116 type  2   force =     0.00000817    0.00002159   -0.00030570
     atom  117 type  2   force =    -0.00009012   -0.00003490   -0.00029409
     atom  118 type  2   force =    -0.00016750   -0.00007455    0.00011714
     atom  119 type  2   force =     0.00014713   -0.00010720    0.00011873
     atom  120 type  2   force =     0.00001917    0.00018237    0.00011718
     atom  121 type  1   force =    -0.00000201   -0.00000078    0.00215970
     atom  122 type  1   force =    -0.00001237   -0.00000713   -0.00006341
     atom  123 type  1   force =    -0.00000028    0.00000065    0.00304203
     atom  124 type  1   force =    -0.00001056    0.00000312   -0.00011766
     atom  125 type  1   force =     0.00002616   -0.00002133   -0.00011815
     atom  126 type  1   force =     0.00000011    0.00000005    0.00406247
     atom  127 type  2   force =     0.00005012   -0.00000757    0.00153763
     atom  128 type  2   force =    -0.00001845    0.00004710    0.00153759
     atom  129 type  2   force =    -0.00003161   -0.00003953    0.00153760
     atom  130 type  2   force =     0.00004804    0.00000040   -0.00031504
     atom  131 type  2   force =    -0.00001428    0.00001609   -0.00040737
     atom  132 type  2   force =    -0.00004557   -0.00001969   -0.00031097
     atom  133 type  2   force =    -0.00016742   -0.00007422    0.00011769
     atom  134 type  2   force =     0.00014745   -0.00010797    0.00012032
     atom  135 type  2   force =     0.00001883    0.00018148    0.00011947
     atom  136 type  3   force =     0.00000029    0.00000060   -0.00059373
     atom  137 type  4   force =     0.00001859   -0.00003929   -0.00012445
     atom  138 type  4   force =    -0.00000127    0.00015703   -0.00061752
     atom  139 type  3   force =     0.00000500   -0.00005783   -0.00068230
     atom  140 type  4   force =    -0.00002885   -0.00005480   -0.00012581
     atom  141 type  4   force =     0.00013893    0.00022578   -0.00059864
     atom  142 type  3   force =    -0.00003506   -0.00001520   -0.00076940
     atom  143 type  4   force =    -0.00009160    0.00000591   -0.00013476
     atom  144 type  4   force =     0.00026831    0.00000713   -0.00061010
     atom  145 type  3   force =    -0.00004188    0.00003014   -0.00063609
     atom  146 type  4   force =    -0.00004352    0.00000296   -0.00012340
     atom  147 type  4   force =     0.00013522   -0.00007506   -0.00061736
     atom  148 type  3   force =    -0.00005417    0.00002558   -0.00068038
     atom  149 type  4   force =    -0.00002838    0.00001910   -0.00014561
     atom  150 type  4   force =    -0.00000516   -0.00001059   -0.00063597
     atom  151 type  3   force =    -0.00000642   -0.00005060   -0.00063778
     atom  152 type  4   force =     0.00003998   -0.00008371   -0.00013597
     atom  153 type  4   force =    -0.00014116    0.00022899   -0.00061062
     atom  154 type  3   force =     0.00000724   -0.00005386   -0.00082653
     atom  155 type  4   force =    -0.00000006   -0.00000017   -0.00008697
     atom  156 type  4   force =     0.00000016   -0.00000052   -0.00058906
     atom  157 type  3   force =    -0.00004929    0.00001882   -0.00082465
     atom  158 type  4   force =    -0.00003303    0.00005141   -0.00012352
     atom  159 type  4   force =     0.00012602   -0.00023334   -0.00059869
     atom  160 type  3   force =     0.00000488    0.00003868   -0.00076720
     atom  161 type  4   force =     0.00001139    0.00002989   -0.00013656
     atom  162 type  4   force =    -0.00000415   -0.00016802   -0.00068755
     atom  163 type  3   force =    -0.00000271   -0.00000222   -0.00074755
     atom  164 type  4   force =     0.00002215   -0.00002572   -0.00013714
     atom  165 type  4   force =    -0.00014557    0.00008825   -0.00068694
     atom  166 type  3   force =     0.00002987   -0.00002435   -0.00076969
     atom  167 type  4   force =     0.00006185    0.00000244   -0.00012393
     atom  168 type  4   force =    -0.00026566    0.00000727   -0.00059801
     atom  169 type  3   force =     0.00004197    0.00003123   -0.00082473
     atom  170 type  4   force =     0.00005147    0.00007575   -0.00013386
     atom  171 type  4   force =    -0.00012725   -0.00023676   -0.00061036
     atom  172 type  3   force =     0.00004842    0.00002157   -0.00063589
     atom  173 type  4   force =    -0.00000273   -0.00003550   -0.00014573
     atom  174 type  4   force =     0.00001360    0.00000465   -0.00063583
     atom  175 type  3   force =     0.00000484    0.00000052   -0.00074767
     atom  176 type  4   force =    -0.00003330   -0.00000519   -0.00013698
     atom  177 type  4   force =     0.00014984    0.00008188   -0.00068682
     atom  178 type  3   force =    -0.00000163    0.00000367   -0.00074596
     atom  179 type  4   force =     0.00003061    0.00001410   -0.00014551
     atom  180 type  4   force =    -0.00000748    0.00000968   -0.00063543
     atom  181 type  3   force =     0.00004865    0.00003301   -0.00067966
     atom  182 type  4   force =     0.00002507    0.00003486   -0.00012338
     atom  183 type  4   force =    -0.00013409   -0.00007834   -0.00061759
     atom  184 type  5   force =     0.00004175   -0.00003881   -0.00171280
     atom  185 type  5   force =     0.00002419    0.00000432   -0.00172860
     atom  186 type  5   force =    -0.00003117    0.00002663   -0.00167219
     atom  187 type  5   force =     0.00000332    0.00003897   -0.00166400
     atom  188 type  5   force =    -0.00000819   -0.00002319   -0.00172859
     atom  189 type  5   force =    -0.00001827   -0.00006290   -0.00164893
     atom  190 type  5   force =     0.00006353    0.00001542   -0.00164929
     atom  191 type  5   force =     0.00003237    0.00001878   -0.00175177
     atom  192 type  5   force =     0.00000892   -0.00001573   -0.00172902
     atom  193 type  5   force =     0.00002265   -0.00002354   -0.00173787
     atom  194 type  5   force =    -0.00005433   -0.00001703   -0.00171253
     atom  195 type  5   force =    -0.00004516    0.00004705   -0.00164931
     atom  196 type  5   force =     0.00001255    0.00005540   -0.00171310
     atom  197 type  5   force =    -0.00000942   -0.00004448   -0.00170404
     atom  198 type  5   force =     0.00003626   -0.00004443   -0.00163715
     atom  199 type  5   force =     0.00004318    0.00001420   -0.00170399
     atom  200 type  5   force =    -0.00003261    0.00001837   -0.00175145
     atom  201 type  5   force =    -0.00001598    0.00001852   -0.00172890
     atom  202 type  5   force =    -0.00003200   -0.00000760   -0.00173800
     atom  203 type  5   force =    -0.00005684   -0.00000866   -0.00163715
     atom  204 type  5   force =     0.00002077    0.00005373   -0.00163708
     atom  205 type  5   force =     0.00000932    0.00001534   -0.00172896
     atom  206 type  5   force =    -0.00000740   -0.00004046   -0.00167190
     atom  207 type  5   force =     0.00003198   -0.00002187   -0.00166373
     atom  208 type  5   force =    -0.00001818    0.00000046   -0.00172916
     atom  209 type  5   force =    -0.00003392    0.00003031   -0.00170406
     atom  210 type  5   force =     0.00000929    0.00003134   -0.00173784
     atom  211 type  5   force =    -0.00003518   -0.00001684   -0.00166342
     atom  212 type  5   force =     0.00000010    0.00000025   -0.00159272
     atom  213 type  5   force =     0.00003849    0.00001399   -0.00167221
     atom  214 type  5   force =     0.00000002   -0.00003751   -0.00175134
     atom  215 type  6   force =     0.00002465   -0.00001119   -0.00127734
     atom  216 type  6   force =    -0.00002066   -0.00001277   -0.00127204
     atom  217 type  6   force =    -0.00001686    0.00001510   -0.00125871
     atom  218 type  6   force =     0.00000461    0.00001414   -0.00132239
     atom  219 type  6   force =    -0.00000475   -0.00002231   -0.00125886
     atom  220 type  6   force =     0.00003108   -0.00000357   -0.00121108
     atom  221 type  6   force =     0.00003353    0.00000219   -0.00128377
     atom  222 type  6   force =    -0.00000590   -0.00001793   -0.00132687
     atom  223 type  6   force =     0.00001015   -0.00001142   -0.00132233
     atom  224 type  6   force =    -0.00001478   -0.00000336   -0.00132251
     atom  225 type  6   force =    -0.00002351    0.00001835   -0.00123982
     atom  226 type  6   force =     0.00001387    0.00003096   -0.00125683
     atom  227 type  6   force =    -0.00000143   -0.00001633   -0.00130461
     atom  228 type  6   force =    -0.00000404   -0.00002959   -0.00123945
     atom  229 type  6   force =     0.00002158    0.00000686   -0.00125898
     atom  230 type  6   force =    -0.00001259    0.00001415   -0.00132741
     atom  231 type  6   force =    -0.00001337    0.00000955   -0.00130497
     atom  232 type  6   force =     0.00000005    0.00000009   -0.00132326
     atom  233 type  6   force =    -0.00003352   -0.00000338   -0.00125636
     atom  234 type  6   force =    -0.00001236    0.00002856   -0.00121087
     atom  235 type  6   force =    -0.00000102    0.00002445   -0.00127234
     atom  236 type  6   force =    -0.00001521   -0.00002987   -0.00128347
     atom  237 type  6   force =     0.00001963   -0.00002731   -0.00125642
     atom  238 type  6   force =     0.00001491    0.00000700   -0.00130478
     atom  239 type  6   force =    -0.00001840    0.00002789   -0.00128340
     atom  240 type  6   force =    -0.00000246    0.00002685   -0.00127738
     atom  241 type  6   force =    -0.00002211   -0.00001550   -0.00127718
     atom  242 type  6   force =    -0.00001878   -0.00002486   -0.00121093
     atom  243 type  6   force =     0.00002746    0.00001121   -0.00123962
     atom  244 type  6   force =     0.00001853    0.00000360   -0.00132709
     atom  245 type  6   force =     0.00002173   -0.00001156   -0.00127206

     Total force =     0.925955     Total SCF correction =     0.000253

     DFT-D3 dispersion Force =     0.022316


     Computing stress (Cartesian axis) and pressure


     negative rho (up, down):  5.565E-03 5.565E-03
          total   stress  (Ry/bohr**3)                   (kbar)     P=      -12.77
  -0.00007839  -0.00000003   0.00000001          -11.53       -0.00        0.00
  -0.00000003  -0.00007838   0.00000015           -0.00      -11.53        0.02
   0.00000001   0.00000015  -0.00010361            0.00        0.02      -15.24

     kinetic stress (kbar)   5203.99     -0.00      0.00
                               -0.00   5203.99      0.03
                                0.00      0.03   5321.54

     local   stress (kbar)-971599.80     -0.00     -0.01
                               -0.00-971599.78     -0.44
                               -0.01     -0.44 967899.99

     nonloc. stress (kbar)   1624.98     -0.00     -0.00
                               -0.00   1624.98     -0.00
                               -0.00     -0.00   1606.42

     hartree stress (kbar) 484084.25      0.00      0.00
                                0.00 484084.25      0.10
                                0.00      0.10-481873.66

     exc-cor stress (kbar)   1956.00      0.00      0.00
                                0.00   1956.00      0.00
                                0.00      0.00   1945.65

     corecor stress (kbar)  -3229.71     -0.00     -0.00
                               -0.00  -3229.71     -0.00
                               -0.00     -0.00  -3224.17

     ewald   stress (kbar) 481958.28      0.00      0.01
                                0.00 481958.26      0.35
                                0.01      0.35-491683.11

     hubbard stress (kbar)      0.00      0.00      0.00
                                0.00      0.00      0.00
                                0.00      0.00      0.00

     DFT-D   stress (kbar)     -9.52     -0.00     -0.00
                               -0.00     -9.52     -0.00
                               -0.00     -0.00     -7.90

     XDM     stress (kbar)      0.00      0.00      0.00
                                0.00      0.00      0.00
                                0.00      0.00      0.00

     dft-nl  stress (kbar)      0.00      0.00      0.00
                                0.00      0.00      0.00
                                0.00      0.00      0.00

     TS-vdW  stress (kbar)      0.00      0.00      0.00
                                0.00      0.00      0.00
                                0.00      0.00      0.00

     MDB     stress (kbar)      0.00      0.00      0.00
                                0.00      0.00      0.00
                                0.00      0.00      0.00

     3D-RISM stress (kbar)      0.00      0.00      0.00
                                0.00      0.00      0.00
                                0.00      0.00      0.00


     Writing all to output data dir ./REDACTED_PATH :
     XML data file, charge density, pseudopotentials, collected wavefunctions

     init_run     :     13.81s CPU     16.09s WALL (       1 calls)
     electrons    :   2780.25s CPU   2864.63s WALL (       1 calls)
     forces       :     23.70s CPU     24.60s WALL (       1 calls)
     force_dftd3  :      1.46s CPU      1.56s WALL (       1 calls)
     stress       :     66.20s CPU     67.53s WALL (       1 calls)
     stres_dftd3  :      0.48s CPU      0.57s WALL (       1 calls)

     Called by init_run:
     wfcinit      :      4.42s CPU      5.97s WALL (       1 calls)
     potinit      :      2.04s CPU      2.38s WALL (       1 calls)
     hinit0       :      2.30s CPU      2.38s WALL (       1 calls)

     Called by electrons:
     c_bands      :   2306.78s CPU   2374.30s WALL (      54 calls)
     sum_band     :    361.64s CPU    373.02s WALL (      54 calls)
     v_of_rho     :     17.99s CPU     19.53s WALL (      54 calls)
     v_h          :      1.10s CPU      1.26s WALL (      54 calls)
     v_xc         :     17.49s CPU     18.92s WALL (      56 calls)
     newd         :     26.38s CPU     26.94s WALL (      54 calls)
     PAW_pot      :     24.01s CPU     24.26s WALL (      54 calls)
     mix_rho      :     39.68s CPU     41.73s WALL (      54 calls)
     energy_dftd3 :      0.19s CPU      0.19s WALL (       1 calls)

     Called by c_bands:
     init_us_2    :     41.02s CPU     41.65s WALL (     220 calls)
     cegterg      :   2200.75s CPU   2267.10s WALL (     108 calls)

     Called by sum_band:
     sum_band:wei :      0.22s CPU      0.22s WALL (      54 calls)
     sum_band:loo :    312.60s CPU    321.04s WALL (      54 calls)
     sum_band:buf :      3.94s CPU      3.97s WALL (     108 calls)
     sum_band:ini :     19.98s CPU     20.25s WALL (     108 calls)
     sum_band:cal :    212.18s CPU    217.39s WALL (     108 calls)
     sum_band:bec :      1.57s CPU      1.60s WALL (     108 calls)
     addusdens    :     36.59s CPU     39.05s WALL (      54 calls)
                                        0.00s GPU  (      54 calls)
     addusd:skk   :      1.34s CPU      1.37s WALL (     324 calls)
                                        0.00s GPU  (     324 calls)

     Called by *egterg:
     cdiaghg      :     43.38s CPU     44.90s WALL (     249 calls)
     cegterg:over :    208.57s CPU    213.15s WALL (     145 calls)
     cegterg:upda :    131.38s CPU    137.22s WALL (     145 calls)
     cegterg:last :    177.70s CPU    181.87s WALL (     127 calls)
     cdiaghg:chol :      3.94s CPU      3.97s WALL (     249 calls)
     cdiaghg:inve :      0.16s CPU      0.16s WALL (     249 calls)
     cdiaghg:para :     12.12s CPU     12.86s WALL (     498 calls)
     h_psi        :   1143.67s CPU   1174.50s WALL (     253 calls)
     s_psi        :    400.09s CPU    412.00s WALL (     253 calls)
     g_psi        :      2.64s CPU      2.67s WALL (     145 calls)

     Called by h_psi:
     h_psi:calbec :    427.66s CPU    436.61s WALL (     253 calls)
     vloc_psi     :    310.23s CPU    316.43s WALL (     253 calls)
                                        0.00s GPU  (     253 calls)
     add_vuspsi   :    401.11s CPU    413.00s WALL (     253 calls)

     General routines
     calbec       :    708.37s CPU    723.36s WALL (     395 calls)
     fft          :     16.13s CPU     18.43s WALL (    1390 calls)
     ffts         :     10.66s CPU     10.78s WALL (    6612 calls)
     fftw         :    369.07s CPU    377.92s WALL (  433078 calls)
     interpolate  :      1.26s CPU      1.44s WALL (     108 calls)

     Parallel routines

     PAW routines
     PAW_pot      :     24.01s CPU     24.26s WALL (      54 calls)

     PWSCF        :   2888.67s CPU   2981.54s WALL


   This run was terminated on:  16:27:29  31Aug2026            

=------------------------------------------------------------------------------=
   JOB DONE.
=------------------------------------------------------------------------------=
Note: The following floating-point exceptions are signalling: IEEE_UNDERFLOW_FLAG IEEE_DENORMAL
Note: The following floating-point exceptions are signalling: IEEE_UNDERFLOW_FLAG IEEE_DENORMAL
Note: The following floating-point exceptions are signalling: IEEE_UNDERFLOW_FLAG IEEE_DENORMAL
Note: The following floating-point exceptions are signalling: IEEE_UNDERFLOW_FLAG IEEE_DENORMAL
Note: The following floating-point exceptions are signalling: IEEE_UNDERFLOW_FLAG IEEE_DENORMAL
Note: The following floating-point exceptions are signalling: IEEE_UNDERFLOW_FLAG IEEE_DENORMAL
Note: The following floating-point exceptions are signalling: IEEE_UNDERFLOW_FLAG IEEE_DENORMAL
Note: The following floating-point exceptions are signalling: IEEE_UNDERFLOW_FLAG IEEE_DENORMAL
Note: The following floating-point exceptions are signalling: IEEE_UNDERFLOW_FLAG IEEE_DENORMAL
Note: The following floating-point exceptions are signalling: IEEE_UNDERFLOW_FLAG IEEE_DENORMAL
Note: The following floating-point exceptions are signalling: IEEE_UNDERFLOW_FLAG IEEE_DENORMAL
Note: The following floating-point exceptions are signalling: IEEE_UNDERFLOW_FLAG IEEE_DENORMAL
Note: The following floating-point exceptions are signalling: IEEE_UNDERFLOW_FLAG IEEE_DENORMAL
Note: The following floating-point exceptions are signalling: IEEE_UNDERFLOW_FLAG IEEE_DENORMAL
Note: The following floating-point exceptions are signalling: IEEE_UNDERFLOW_FLAG IEEE_DENORMAL
Note: The following floating-point exceptions are signalling: IEEE_UNDERFLOW_FLAG IEEE_DENORMAL
Note: The following floating-point exceptions are signalling: IEEE_UNDERFLOW_FLAG IEEE_DENORMAL
Note: The following floating-point exceptions are signalling: IEEE_UNDERFLOW_FLAG IEEE_DENORMAL
Note: The following floating-point exceptions are signalling: IEEE_UNDERFLOW_FLAG IEEE_DENORMAL
Note: The following floating-point exceptions are signalling: IEEE_UNDERFLOW_FLAG IEEE_DENORMAL
Note: The following floating-point exceptions are signalling: IEEE_UNDERFLOW_FLAG IEEE_DENORMAL
Note: The following floating-point exceptions are signalling: IEEE_UNDERFLOW_FLAG IEEE_DENORMAL
Note: The following floating-point exceptions are signalling: IEEE_UNDERFLOW_FLAG IEEE_DENORMAL
Note: The following floating-point exceptions are signalling: IEEE_UNDERFLOW_FLAG IEEE_DENORMAL
Note: The following floating-point exceptions are signalling: IEEE_UNDERFLOW_FLAG IEEE_DENORMAL
Note: The following floating-point exceptions are signalling: IEEE_UNDERFLOW_FLAG IEEE_DENORMAL
Note: The following floating-point exceptions are signalling: IEEE_UNDERFLOW_FLAG IEEE_DENORMAL
Note: The following floating-point exceptions are signalling: IEEE_UNDERFLOW_FLAG IEEE_DENORMAL
Note: The following floating-point exceptions are signalling: IEEE_UNDERFLOW_FLAG IEEE_DENORMAL
Note: The following floating-point exceptions are signalling: IEEE_UNDERFLOW_FLAG IEEE_DENORMAL
Note: The following floating-point exceptions are signalling: IEEE_UNDERFLOW_FLAG IEEE_DENORMAL
Note: The following floating-point exceptions are signalling: IEEE_UNDERFLOW_FLAG IEEE_DENORMAL
Note: The following floating-point exceptions are signalling: IEEE_UNDERFLOW_FLAG IEEE_DENORMAL
Note: The following floating-point exceptions are signalling: IEEE_UNDERFLOW_FLAG IEEE_DENORMAL
Note: The following floating-point exceptions are signalling: IEEE_UNDERFLOW_FLAG IEEE_DENORMAL
Note: The following floating-point exceptions are signalling: IEEE_UNDERFLOW_FLAG IEEE_DENORMAL
Note: The following floating-point exceptions are signalling: IEEE_UNDERFLOW_FLAG IEEE_DENORMAL
Note: The following floating-point exceptions are signalling: IEEE_UNDERFLOW_FLAG IEEE_DENORMAL
Note: The following floating-point exceptions are signalling: IEEE_UNDERFLOW_FLAG IEEE_DENORMAL
Note: The following floating-point exceptions are signalling: IEEE_UNDERFLOW_FLAG IEEE_DENORMAL
Note: The following floating-point exceptions are signalling: IEEE_UNDERFLOW_FLAG IEEE_DENORMAL
Note: The following floating-point exceptions are signalling: IEEE_UNDERFLOW_FLAG IEEE_DENORMAL
Note: The following floating-point exceptions are signalling: IEEE_UNDERFLOW_FLAG IEEE_DENORMAL
Note: The following floating-point exceptions are signalling: IEEE_INVALID_FLAG IEEE_UNDERFLOW_FLAG IEEE_DENORMAL
Note: The following floating-point exceptions are signalling: IEEE_UNDERFLOW_FLAG IEEE_DENORMAL
Note: The following floating-point exceptions are signalling: IEEE_UNDERFLOW_FLAG IEEE_DENORMAL
Note: The following floating-point exceptions are signalling: IEEE_UNDERFLOW_FLAG IEEE_DENORMAL
Note: The following floating-point exceptions are signalling: IEEE_UNDERFLOW_FLAG IEEE_DENORMAL
Note: The following floating-point exceptions are signalling: IEEE_UNDERFLOW_FLAG IEEE_DENORMAL
Note: The following floating-point exceptions are signalling: IEEE_UNDERFLOW_FLAG IEEE_DENORMAL
Note: The following floating-point exceptions are signalling: IEEE_UNDERFLOW_FLAG IEEE_DENORMAL
Note: The following floating-point exceptions are signalling: IEEE_UNDERFLOW_FLAG IEEE_DENORMAL
Note: The following floating-point exceptions are signalling: IEEE_UNDERFLOW_FLAG IEEE_DENORMAL
Note: The following floating-point exceptions are signalling: IEEE_UNDERFLOW_FLAG IEEE_DENORMAL
Note: The following floating-point exceptions are signalling: IEEE_UNDERFLOW_FLAG IEEE_DENORMAL
Note: The following floating-point exceptions are signalling: IEEE_UNDERFLOW_FLAG IEEE_DENORMAL
Note: The following floating-point exceptions are signalling: IEEE_UNDERFLOW_FLAG IEEE_DENORMAL
Note: The following floating-point exceptions are signalling: IEEE_INVALID_FLAG IEEE_UNDERFLOW_FLAG IEEE_DENORMAL
Note: The following floating-point exceptions are signalling: IEEE_UNDERFLOW_FLAG IEEE_DENORMAL
Note: The following floating-point exceptions are signalling: IEEE_UNDERFLOW_FLAG IEEE_DENORMAL
Note: The following floating-point exceptions are signalling: IEEE_UNDERFLOW_FLAG IEEE_DENORMAL
Note: The following floating-point exceptions are signalling: IEEE_UNDERFLOW_FLAG IEEE_DENORMAL
Note: The following floating-point exceptions are signalling: IEEE_UNDERFLOW_FLAG IEEE_DENORMAL
Note: The following floating-point exceptions are signalling: IEEE_UNDERFLOW_FLAG IEEE_DENORMAL
Note: The following floating-point exceptions are signalling: IEEE_UNDERFLOW_FLAG IEEE_DENORMAL
Note: The following floating-point exceptions are signalling: IEEE_UNDERFLOW_FLAG IEEE_DENORMAL
Note: The following floating-point exceptions are signalling: IEEE_INVALID_FLAG IEEE_UNDERFLOW_FLAG IEEE_DENORMAL
Note: The following floating-point exceptions are signalling: IEEE_UNDERFLOW_FLAG IEEE_DENORMAL
Note: The following floating-point exceptions are signalling: IEEE_UNDERFLOW_FLAG IEEE_DENORMAL
Note: The following floating-point exceptions are signalling: IEEE_UNDERFLOW_FLAG IEEE_DENORMAL
Note: The following floating-point exceptions are signalling: IEEE_UNDERFLOW_FLAG IEEE_DENORMAL
Note: The following floating-point exceptions are signalling: IEEE_UNDERFLOW_FLAG IEEE_DENORMAL
Note: The following floating-point exceptions are signalling: IEEE_UNDERFLOW_FLAG IEEE_DENORMAL
Note: The following floating-point exceptions are signalling: IEEE_UNDERFLOW_FLAG IEEE_DENORMAL
Note: The following floating-point exceptions are signalling: IEEE_UNDERFLOW_FLAG IEEE_DENORMAL
Note: The following floating-point exceptions are signalling: IEEE_UNDERFLOW_FLAG IEEE_DENORMAL
Note: The following floating-point exceptions are signalling: IEEE_UNDERFLOW_FLAG IEEE_DENORMAL
Note: The following floating-point exceptions are signalling: IEEE_UNDERFLOW_FLAG IEEE_DENORMAL
Note: The following floating-point exceptions are signalling: IEEE_UNDERFLOW_FLAG IEEE_DENORMAL
Note: The following floating-point exceptions are signalling: IEEE_UNDERFLOW_FLAG IEEE_DENORMAL
Note: The following floating-point exceptions are signalling: IEEE_UNDERFLOW_FLAG IEEE_DENORMAL
Note: The following floating-point exceptions are signalling: IEEE_UNDERFLOW_FLAG IEEE_DENORMAL
Note: The following floating-point exceptions are signalling: IEEE_UNDERFLOW_FLAG IEEE_DENORMAL
Note: The following floating-point exceptions are signalling: IEEE_UNDERFLOW_FLAG IEEE_DENORMAL
Note: The following floating-point exceptions are signalling: IEEE_UNDERFLOW_FLAG IEEE_DENORMAL
Note: The following floating-point exceptions are signalling: IEEE_UNDERFLOW_FLAG IEEE_DENORMAL
Note: The following floating-point exceptions are signalling: IEEE_UNDERFLOW_FLAG IEEE_DENORMAL
Note: The following floating-point exceptions are signalling: IEEE_UNDERFLOW_FLAG IEEE_DENORMAL
Note: The following floating-point exceptions are signalling: IEEE_UNDERFLOW_FLAG IEEE_DENORMAL
Note: The following floating-point exceptions are signalling: IEEE_UNDERFLOW_FLAG IEEE_DENORMAL
Note: The following floating-point exceptions are signalling: IEEE_UNDERFLOW_FLAG IEEE_DENORMAL
Note: The following floating-point exceptions are signalling: IEEE_UNDERFLOW_FLAG IEEE_DENORMAL
Note: The following floating-point exceptions are signalling: IEEE_UNDERFLOW_FLAG IEEE_DENORMAL
Note: The following floating-point exceptions are signalling: IEEE_UNDERFLOW_FLAG IEEE_DENORMAL
Note: The following floating-point exceptions are signalling: IEEE_UNDERFLOW_FLAG IEEE_DENORMAL
Note: The following floating-point exceptions are signalling: IEEE_UNDERFLOW_FLAG IEEE_DENORMAL
Note: The following floating-point exceptions are signalling: IEEE_UNDERFLOW_FLAG IEEE_DENORMAL
Note: The following floating-point exceptions are signalling: IEEE_UNDERFLOW_FLAG IEEE_DENORMAL
Note: The following floating-point exceptions are signalling: IEEE_UNDERFLOW_FLAG IEEE_DENORMAL
Note: The following floating-point exceptions are signalling: IEEE_UNDERFLOW_FLAG IEEE_DENORMAL
Note: The following floating-point exceptions are signalling: IEEE_UNDERFLOW_FLAG IEEE_DENORMAL
Note: The following floating-point exceptions are signalling: IEEE_UNDERFLOW_FLAG IEEE_DENORMAL
Note: The following floating-point exceptions are signalling: IEEE_UNDERFLOW_FLAG IEEE_DENORMAL
Note: The following floating-point exceptions are signalling: IEEE_UNDERFLOW_FLAG IEEE_DENORMAL
Note: The following floating-point exceptions are signalling: IEEE_UNDERFLOW_FLAG IEEE_DENORMAL
Note: The following floating-point exceptions are signalling: IEEE_UNDERFLOW_FLAG IEEE_DENORMAL
Note: The following floating-point exceptions are signalling: IEEE_UNDERFLOW_FLAG IEEE_DENORMAL
Note: The following floating-point exceptions are signalling: IEEE_UNDERFLOW_FLAG IEEE_DENORMAL
Note: The following floating-point exceptions are signalling: IEEE_UNDERFLOW_FLAG IEEE_DENORMAL
Note: The following floating-point exceptions are signalling: IEEE_UNDERFLOW_FLAG IEEE_DENORMAL
Note: The following floating-point exceptions are signalling: IEEE_UNDERFLOW_FLAG IEEE_DENORMAL
Note: The following floating-point exceptions are signalling: IEEE_UNDERFLOW_FLAG IEEE_DENORMAL
Note: The following floating-point exceptions are signalling: IEEE_UNDERFLOW_FLAG IEEE_DENORMAL
Note: The following floating-point exceptions are signalling: IEEE_UNDERFLOW_FLAG IEEE_DENORMAL
Note: The following floating-point exceptions are signalling: IEEE_UNDERFLOW_FLAG IEEE_DENORMAL
Note: The following floating-point exceptions are signalling: IEEE_UNDERFLOW_FLAG IEEE_DENORMAL
Note: The following floating-point exceptions are signalling: IEEE_UNDERFLOW_FLAG IEEE_DENORMAL
Note: The following floating-point exceptions are signalling: IEEE_UNDERFLOW_FLAG IEEE_DENORMAL
Note: The following floating-point exceptions are signalling: IEEE_UNDERFLOW_FLAG IEEE_DENORMAL
Note: The following floating-point exceptions are signalling: IEEE_UNDERFLOW_FLAG IEEE_DENORMAL
Note: The following floating-point exceptions are signalling: IEEE_UNDERFLOW_FLAG IEEE_DENORMAL
Note: The following floating-point exceptions are signalling: IEEE_UNDERFLOW_FLAG IEEE_DENORMAL
Note: The following floating-point exceptions are signalling: IEEE_UNDERFLOW_FLAG IEEE_DENORMAL
Note: The following floating-point exceptions are signalling: IEEE_UNDERFLOW_FLAG IEEE_DENORMAL
Note: The following floating-point exceptions are signalling: IEEE_UNDERFLOW_FLAG IEEE_DENORMAL
Note: The following floating-point exceptions are signalling: IEEE_UNDERFLOW_FLAG IEEE_DENORMAL
Note: The following floating-point exceptions are signalling: IEEE_UNDERFLOW_FLAG IEEE_DENORMAL
Note: The following floating-point exceptions are signalling: IEEE_UNDERFLOW_FLAG IEEE_DENORMAL
Note: The following floating-point exceptions are signalling: IEEE_UNDERFLOW_FLAG IEEE_DENORMAL
Note: The following floating-point exceptions are signalling: IEEE_UNDERFLOW_FLAG IEEE_DENORMAL
Note: The following floating-point exceptions are signalling: IEEE_UNDERFLOW_FLAG IEEE_DENORMAL
Note: The following floating-point exceptions are signalling: IEEE_UNDERFLOW_FLAG IEEE_DENORMAL
Note: The following floating-point exceptions are signalling: IEEE_UNDERFLOW_FLAG IEEE_DENORMAL
Note: The following floating-point exceptions are signalling: IEEE_UNDERFLOW_FLAG IEEE_DENORMAL
Note: The following floating-point exceptions are signalling: IEEE_UNDERFLOW_FLAG IEEE_DENORMAL
Note: The following floating-point exceptions are signalling: IEEE_UNDERFLOW_FLAG IEEE_DENORMAL
Note: The following floating-point exceptions are signalling: IEEE_UNDERFLOW_FLAG IEEE_DENORMAL
Note: The following floating-point exceptions are signalling: IEEE_UNDERFLOW_FLAG IEEE_DENORMAL
Note: The following floating-point exceptions are signalling: IEEE_UNDERFLOW_FLAG IEEE_DENORMAL
Note: The following floating-point exceptions are signalling: IEEE_UNDERFLOW_FLAG IEEE_DENORMAL
Note: The following floating-point exceptions are signalling: IEEE_UNDERFLOW_FLAG IEEE_DENORMAL
Note: The following floating-point exceptions are signalling: IEEE_UNDERFLOW_FLAG IEEE_DENORMAL
Note: The following floating-point exceptions are signalling: IEEE_UNDERFLOW_FLAG IEEE_DENORMAL
Note: The following floating-point exceptions are signalling: IEEE_UNDERFLOW_FLAG IEEE_DENORMAL
Note: The following floating-point exceptions are signalling: IEEE_UNDERFLOW_FLAG IEEE_DENORMAL
Note: The following floating-point exceptions are signalling: IEEE_UNDERFLOW_FLAG IEEE_DENORMAL
Note: The following floating-point exceptions are signalling: IEEE_UNDERFLOW_FLAG IEEE_DENORMAL
Note: The following floating-point exceptions are signalling: IEEE_UNDERFLOW_FLAG IEEE_DENORMAL
Note: The following floating-point exceptions are signalling: IEEE_UNDERFLOW_FLAG IEEE_DENORMAL
Note: The following floating-point exceptions are signalling: IEEE_UNDERFLOW_FLAG IEEE_DENORMAL
Note: The following floating-point exceptions are signalling: IEEE_UNDERFLOW_FLAG IEEE_DENORMAL
Note: The following floating-point exceptions are signalling: IEEE_UNDERFLOW_FLAG IEEE_DENORMAL
Note: The following floating-point exceptions are signalling: IEEE_UNDERFLOW_FLAG IEEE_DENORMAL
Note: The following floating-point exceptions are signalling: IEEE_UNDERFLOW_FLAG IEEE_DENORMAL
Note: The following floating-point exceptions are signalling: IEEE_UNDERFLOW_FLAG IEEE_DENORMAL
Note: The following floating-point exceptions are signalling: IEEE_UNDERFLOW_FLAG IEEE_DENORMAL
Note: The following floating-point exceptions are signalling: IEEE_UNDERFLOW_FLAG IEEE_DENORMAL
Note: The following floating-point exceptions are signalling: IEEE_UNDERFLOW_FLAG IEEE_DENORMAL
Note: The following floating-point exceptions are signalling: IEEE_UNDERFLOW_FLAG IEEE_DENORMAL
Note: The following floating-point exceptions are signalling: IEEE_UNDERFLOW_FLAG IEEE_DENORMAL
Note: The following floating-point exceptions are signalling: IEEE_UNDERFLOW_FLAG IEEE_DENORMAL
Note: The following floating-point exceptions are signalling: IEEE_UNDERFLOW_FLAG IEEE_DENORMAL
Note: The following floating-point exceptions are signalling: IEEE_UNDERFLOW_FLAG IEEE_DENORMAL
Note: The following floating-point exceptions are signalling: IEEE_UNDERFLOW_FLAG IEEE_DENORMAL
Note: The following floating-point exceptions are signalling: IEEE_UNDERFLOW_FLAG IEEE_DENORMAL
Note: The following floating-point exceptions are signalling: IEEE_UNDERFLOW_FLAG IEEE_DENORMAL
Note: The following floating-point exceptions are signalling: IEEE_UNDERFLOW_FLAG IEEE_DENORMAL
Note: The following floating-point exceptions are signalling: IEEE_UNDERFLOW_FLAG IEEE_DENORMAL
Note: The following floating-point exceptions are signalling: IEEE_UNDERFLOW_FLAG IEEE_DENORMAL
Note: The following floating-point exceptions are signalling: IEEE_UNDERFLOW_FLAG IEEE_DENORMAL
Note: The following floating-point exceptions are signalling: IEEE_UNDERFLOW_FLAG IEEE_DENORMAL
Note: The following floating-point exceptions are signalling: IEEE_UNDERFLOW_FLAG IEEE_DENORMAL
Note: The following floating-point exceptions are signalling: IEEE_UNDERFLOW_FLAG IEEE_DENORMAL
Note: The following floating-point exceptions are signalling: IEEE_UNDERFLOW_FLAG IEEE_DENORMAL
Note: The following floating-point exceptions are signalling: IEEE_UNDERFLOW_FLAG IEEE_DENORMAL
Note: The following floating-point exceptions are signalling: IEEE_UNDERFLOW_FLAG IEEE_DENORMAL
Note: The following floating-point exceptions are signalling: IEEE_UNDERFLOW_FLAG IEEE_DENORMAL
Note: The following floating-point exceptions are signalling: IEEE_UNDERFLOW_FLAG IEEE_DENORMAL
Note: The following floating-point exceptions are signalling: IEEE_UNDERFLOW_FLAG IEEE_DENORMAL
Note: The following floating-point exceptions are signalling: IEEE_UNDERFLOW_FLAG IEEE_DENORMAL
Note: The following floating-point exceptions are signalling: IEEE_UNDERFLOW_FLAG IEEE_DENORMAL
Note: The following floating-point exceptions are signalling: IEEE_UNDERFLOW_FLAG IEEE_DENORMAL
Note: The following floating-point exceptions are signalling: IEEE_UNDERFLOW_FLAG IEEE_DENORMAL
Note: The following floating-point exceptions are signalling: IEEE_UNDERFLOW_FLAG IEEE_DENORMAL
Note: The following floating-point exceptions are signalling: IEEE_UNDERFLOW_FLAG IEEE_DENORMAL
Note: The following floating-point exceptions are signalling: IEEE_UNDERFLOW_FLAG IEEE_DENORMAL
Note: The following floating-point exceptions are signalling: IEEE_UNDERFLOW_FLAG IEEE_DENORMAL
Note: The following floating-point exceptions are signalling: IEEE_UNDERFLOW_FLAG IEEE_DENORMAL
Note: The following floating-point exceptions are signalling: IEEE_UNDERFLOW_FLAG IEEE_DENORMAL
Note: The following floating-point exceptions are signalling: IEEE_UNDERFLOW_FLAG IEEE_DENORMAL
Note: The following floating-point exceptions are signalling: IEEE_UNDERFLOW_FLAG IEEE_DENORMAL
Note: The following floating-point exceptions are signalling: IEEE_UNDERFLOW_FLAG IEEE_DENORMAL
Note: The following floating-point exceptions are signalling: IEEE_UNDERFLOW_FLAG IEEE_DENORMAL
Note: The following floating-point exceptions are signalling: IEEE_UNDERFLOW_FLAG IEEE_DENORMAL
Note: The following floating-point exceptions are signalling: IEEE_UNDERFLOW_FLAG IEEE_DENORMAL
Note: The following floating-point exceptions are signalling: IEEE_UNDERFLOW_FLAG IEEE_DENORMAL
Note: The following floating-point exceptions are signalling: IEEE_UNDERFLOW_FLAG IEEE_DENORMAL
Note: The following floating-point exceptions are signalling: IEEE_UNDERFLOW_FLAG IEEE_DENORMAL
Note: The following floating-point exceptions are signalling: IEEE_UNDERFLOW_FLAG IEEE_DENORMAL
Note: The following floating-point exceptions are signalling: IEEE_UNDERFLOW_FLAG IEEE_DENORMAL
Note: The following floating-point exceptions are signalling: IEEE_UNDERFLOW_FLAG IEEE_DENORMAL
Note: The following floating-point exceptions are signalling: IEEE_UNDERFLOW_FLAG IEEE_DENORMAL
Note: The following floating-point exceptions are signalling: IEEE_UNDERFLOW_FLAG IEEE_DENORMAL
Note: The following floating-point exceptions are signalling: IEEE_UNDERFLOW_FLAG IEEE_DENORMAL
Note: The following floating-point exceptions are signalling: IEEE_UNDERFLOW_FLAG IEEE_DENORMAL
Note: The following floating-point exceptions are signalling: IEEE_UNDERFLOW_FLAG IEEE_DENORMAL
Note: The following floating-point exceptions are signalling: IEEE_UNDERFLOW_FLAG IEEE_DENORMAL
Note: The following floating-point exceptions are signalling: IEEE_UNDERFLOW_FLAG IEEE_DENORMAL
Note: The following floating-point exceptions are signalling: IEEE_UNDERFLOW_FLAG IEEE_DENORMAL
Note: The following floating-point exceptions are signalling: IEEE_UNDERFLOW_FLAG IEEE_DENORMAL
Note: The following floating-point exceptions are signalling: IEEE_UNDERFLOW_FLAG IEEE_DENORMAL
Note: The following floating-point exceptions are signalling: IEEE_UNDERFLOW_FLAG IEEE_DENORMAL
Note: The following floating-point exceptions are signalling: IEEE_UNDERFLOW_FLAG IEEE_DENORMAL
Note: The following floating-point exceptions are signalling: IEEE_UNDERFLOW_FLAG IEEE_DENORMAL
Note: The following floating-point exceptions are signalling: IEEE_UNDERFLOW_FLAG IEEE_DENORMAL
Note: The following floating-point exceptions are signalling: IEEE_UNDERFLOW_FLAG IEEE_DENORMAL
Note: The following floating-point exceptions are signalling: IEEE_UNDERFLOW_FLAG IEEE_DENORMAL
Note: The following floating-point exceptions are signalling: IEEE_UNDERFLOW_FLAG IEEE_DENORMAL
Note: The following floating-point exceptions are signalling: IEEE_UNDERFLOW_FLAG IEEE_DENORMAL
Note: The following floating-point exceptions are signalling: IEEE_UNDERFLOW_FLAG IEEE_DENORMAL
Note: The following floating-point exceptions are signalling: IEEE_UNDERFLOW_FLAG IEEE_DENORMAL
Note: The following floating-point exceptions are signalling: IEEE_UNDERFLOW_FLAG IEEE_DENORMAL
Note: The following floating-point exceptions are signalling: IEEE_UNDERFLOW_FLAG IEEE_DENORMAL
Note: The following floating-point exceptions are signalling: IEEE_UNDERFLOW_FLAG IEEE_DENORMAL
Note: The following floating-point exceptions are signalling: IEEE_UNDERFLOW_FLAG IEEE_DENORMAL
Note: The following floating-point exceptions are signalling: IEEE_UNDERFLOW_FLAG IEEE_DENORMAL
Note: The following floating-point exceptions are signalling: IEEE_UNDERFLOW_FLAG IEEE_DENORMAL
Note: The following floating-point exceptions are signalling: IEEE_UNDERFLOW_FLAG IEEE_DENORMAL
Note: The following floating-point exceptions are signalling: IEEE_UNDERFLOW_FLAG IEEE_DENORMAL
Note: The following floating-point exceptions are signalling: IEEE_UNDERFLOW_FLAG IEEE_DENORMAL
Note: The following floating-point exceptions are signalling: IEEE_UNDERFLOW_FLAG IEEE_DENORMAL
Note: The following floating-point exceptions are signalling: IEEE_UNDERFLOW_FLAG IEEE_DENORMAL
Note: The following floating-point exceptions are signalling: IEEE_UNDERFLOW_FLAG IEEE_DENORMAL
Note: The following floating-point exceptions are signalling: IEEE_UNDERFLOW_FLAG IEEE_DENORMAL
Note: The following floating-point exceptions are signalling: IEEE_UNDERFLOW_FLAG IEEE_DENORMAL
Note: The following floating-point exceptions are signalling: IEEE_UNDERFLOW_FLAG IEEE_DENORMAL
Note: The following floating-point exceptions are signalling: IEEE_UNDERFLOW_FLAG IEEE_DENORMAL
Note: The following floating-point exceptions are signalling: IEEE_UNDERFLOW_FLAG IEEE_DENORMAL
Note: The following floating-point exceptions are signalling: IEEE_UNDERFLOW_FLAG IEEE_DENORMAL
Note: The following floating-point exceptions are signalling: IEEE_UNDERFLOW_FLAG IEEE_DENORMAL
Note: The following floating-point exceptions are signalling: IEEE_UNDERFLOW_FLAG IEEE_DENORMAL
Note: The following floating-point exceptions are signalling: IEEE_UNDERFLOW_FLAG IEEE_DENORMAL
Note: The following floating-point exceptions are signalling: IEEE_UNDERFLOW_FLAG IEEE_DENORMAL
Note: The following floating-point exceptions are signalling: IEEE_UNDERFLOW_FLAG IEEE_DENORMAL
Note: The following floating-point exceptions are signalling: IEEE_UNDERFLOW_FLAG IEEE_DENORMAL
Note: The following floating-point exceptions are signalling: IEEE_UNDERFLOW_FLAG IEEE_DENORMAL
Note: The following floating-point exceptions are signalling: IEEE_UNDERFLOW_FLAG IEEE_DENORMAL
Note: The following floating-point exceptions are signalling: IEEE_UNDERFLOW_FLAG IEEE_DENORMAL
Note: The following floating-point exceptions are signalling: IEEE_UNDERFLOW_FLAG IEEE_DENORMAL
Note: The following floating-point exceptions are signalling: IEEE_UNDERFLOW_FLAG IEEE_DENORMAL
Note: The following floating-point exceptions are signalling: IEEE_UNDERFLOW_FLAG IEEE_DENORMAL
Note: The following floating-point exceptions are signalling: IEEE_UNDERFLOW_FLAG IEEE_DENORMAL
Note: The following floating-point exceptions are signalling: IEEE_UNDERFLOW_FLAG IEEE_DENORMAL
Note: The following floating-point exceptions are signalling: IEEE_UNDERFLOW_FLAG IEEE_DENORMAL
Note: The following floating-point exceptions are signalling: IEEE_UNDERFLOW_FLAG IEEE_DENORMAL
Note: The following floating-point exceptions are signalling: IEEE_UNDERFLOW_FLAG IEEE_DENORMAL
Note: The following floating-point exceptions are signalling: IEEE_UNDERFLOW_FLAG IEEE_DENORMAL
Note: The following floating-point exceptions are signalling: IEEE_UNDERFLOW_FLAG IEEE_DENORMAL
Note: The following floating-point exceptions are signalling: IEEE_UNDERFLOW_FLAG IEEE_DENORMAL
Note: The following floating-point exceptions are signalling: IEEE_UNDERFLOW_FLAG IEEE_DENORMAL
Note: The following floating-point exceptions are signalling: IEEE_UNDERFLOW_FLAG IEEE_DENORMAL
Note: The following floating-point exceptions are signalling: IEEE_UNDERFLOW_FLAG IEEE_DENORMAL
Note: The following floating-point exceptions are signalling: IEEE_UNDERFLOW_FLAG IEEE_DENORMAL
Note: The following floating-point exceptions are signalling: IEEE_UNDERFLOW_FLAG IEEE_DENORMAL
Note: The following floating-point exceptions are signalling: IEEE_UNDERFLOW_FLAG IEEE_DENORMAL
Note: The following floating-point exceptions are signalling: IEEE_UNDERFLOW_FLAG IEEE_DENORMAL
Note: The following floating-point exceptions are signalling: IEEE_UNDERFLOW_FLAG IEEE_DENORMAL
Note: The following floating-point exceptions are signalling: IEEE_UNDERFLOW_FLAG IEEE_DENORMAL
Note: The following floating-point exceptions are signalling: IEEE_UNDERFLOW_FLAG IEEE_DENORMAL
Note: The following floating-point exceptions are signalling: IEEE_UNDERFLOW_FLAG IEEE_DENORMAL
Note: The following floating-point exceptions are signalling: IEEE_UNDERFLOW_FLAG IEEE_DENORMAL
Note: The following floating-point exceptions are signalling: IEEE_UNDERFLOW_FLAG IEEE_DENORMAL
Note: The following floating-point exceptions are signalling: IEEE_UNDERFLOW_FLAG IEEE_DENORMAL
Note: The following floating-point exceptions are signalling: IEEE_UNDERFLOW_FLAG IEEE_DENORMAL
Note: The following floating-point exceptions are signalling: IEEE_UNDERFLOW_FLAG IEEE_DENORMAL
Note: The following floating-point exceptions are signalling: IEEE_UNDERFLOW_FLAG IEEE_DENORMAL
Note: The following floating-point exceptions are signalling: IEEE_UNDERFLOW_FLAG IEEE_DENORMAL
Note: The following floating-point exceptions are signalling: IEEE_UNDERFLOW_FLAG IEEE_DENORMAL
Note: The following floating-point exceptions are signalling: IEEE_UNDERFLOW_FLAG IEEE_DENORMAL
Note: The following floating-point exceptions are signalling: IEEE_UNDERFLOW_FLAG IEEE_DENORMAL
Note: The following floating-point exceptions are signalling: IEEE_UNDERFLOW_FLAG IEEE_DENORMAL
Note: The following floating-point exceptions are signalling: IEEE_UNDERFLOW_FLAG IEEE_DENORMAL
Note: The following floating-point exceptions are signalling: IEEE_UNDERFLOW_FLAG IEEE_DENORMAL
Note: The following floating-point exceptions are signalling: IEEE_UNDERFLOW_FLAG IEEE_DENORMAL
Note: The following floating-point exceptions are signalling: IEEE_UNDERFLOW_FLAG IEEE_DENORMAL
Note: The following floating-point exceptions are signalling: IEEE_UNDERFLOW_FLAG IEEE_DENORMAL
Note: The following floating-point exceptions are signalling: IEEE_UNDERFLOW_FLAG IEEE_DENORMAL
Note: The following floating-point exceptions are signalling: IEEE_UNDERFLOW_FLAG IEEE_DENORMAL
Note: The following floating-point exceptions are signalling: IEEE_UNDERFLOW_FLAG IEEE_DENORMAL
Note: The following floating-point exceptions are signalling: IEEE_UNDERFLOW_FLAG IEEE_DENORMAL
Note: The following floating-point exceptions are signalling: IEEE_UNDERFLOW_FLAG IEEE_DENORMAL
Note: The following floating-point exceptions are signalling: IEEE_UNDERFLOW_FLAG IEEE_DENORMAL
Note: The following floating-point exceptions are signalling: IEEE_UNDERFLOW_FLAG IEEE_DENORMAL
Note: The following floating-point exceptions are signalling: IEEE_UNDERFLOW_FLAG IEEE_DENORMAL
Note: The following floating-point exceptions are signalling: IEEE_UNDERFLOW_FLAG IEEE_DENORMAL
Note: The following floating-point exceptions are signalling: IEEE_UNDERFLOW_FLAG IEEE_DENORMAL
Note: The following floating-point exceptions are signalling: IEEE_UNDERFLOW_FLAG IEEE_DENORMAL
Note: The following floating-point exceptions are signalling: IEEE_UNDERFLOW_FLAG IEEE_DENORMAL
Note: The following floating-point exceptions are signalling: IEEE_UNDERFLOW_FLAG IEEE_DENORMAL
Note: The following floating-point exceptions are signalling: IEEE_UNDERFLOW_FLAG IEEE_DENORMAL
Note: The following floating-point exceptions are signalling: IEEE_UNDERFLOW_FLAG IEEE_DENORMAL
Note: The following floating-point exceptions are signalling: IEEE_UNDERFLOW_FLAG IEEE_DENORMAL
Note: The following floating-point exceptions are signalling: IEEE_UNDERFLOW_FLAG IEEE_DENORMAL
Note: The following floating-point exceptions are signalling: IEEE_UNDERFLOW_FLAG IEEE_DENORMAL
Note: The following floating-point exceptions are signalling: IEEE_UNDERFLOW_FLAG IEEE_DENORMAL
Note: The following floating-point exceptions are signalling: IEEE_UNDERFLOW_FLAG IEEE_DENORMAL
Note: The following floating-point exceptions are signalling: IEEE_UNDERFLOW_FLAG IEEE_DENORMAL
Note: The following floating-point exceptions are signalling: IEEE_UNDERFLOW_FLAG IEEE_DENORMAL
Note: The following floating-point exceptions are signalling: IEEE_UNDERFLOW_FLAG IEEE_DENORMAL
Note: The following floating-point exceptions are signalling: IEEE_UNDERFLOW_FLAG IEEE_DENORMAL
Note: The following floating-point exceptions are signalling: IEEE_UNDERFLOW_FLAG IEEE_DENORMAL
Note: The following floating-point exceptions are signalling: IEEE_UNDERFLOW_FLAG IEEE_DENORMAL
Note: The following floating-point exceptions are signalling: IEEE_UNDERFLOW_FLAG IEEE_DENORMAL
Note: The following floating-point exceptions are signalling: IEEE_UNDERFLOW_FLAG IEEE_DENORMAL
Note: The following floating-point exceptions are signalling: IEEE_UNDERFLOW_FLAG IEEE_DENORMAL
Note: The following floating-point exceptions are signalling: IEEE_UNDERFLOW_FLAG IEEE_DENORMAL
Note: The following floating-point exceptions are signalling: IEEE_UNDERFLOW_FLAG IEEE_DENORMAL
Note: The following floating-point exceptions are signalling: IEEE_UNDERFLOW_FLAG IEEE_DENORMAL
Note: The following floating-point exceptions are signalling: IEEE_UNDERFLOW_FLAG IEEE_DENORMAL
Note: The following floating-point exceptions are signalling: IEEE_UNDERFLOW_FLAG IEEE_DENORMAL
Note: The following floating-point exceptions are signalling: IEEE_UNDERFLOW_FLAG IEEE_DENORMAL
Note: The following floating-point exceptions are signalling: IEEE_UNDERFLOW_FLAG IEEE_DENORMAL
Note: The following floating-point exceptions are signalling: IEEE_UNDERFLOW_FLAG IEEE_DENORMAL
Note: The following floating-point exceptions are signalling: IEEE_UNDERFLOW_FLAG IEEE_DENORMAL
Note: The following floating-point exceptions are signalling: IEEE_UNDERFLOW_FLAG IEEE_DENORMAL
Note: The following floating-point exceptions are signalling: IEEE_UNDERFLOW_FLAG IEEE_DENORMAL
Note: The following floating-point exceptions are signalling: IEEE_UNDERFLOW_FLAG IEEE_DENORMAL
Note: The following floating-point exceptions are signalling: IEEE_UNDERFLOW_FLAG IEEE_DENORMAL
Note: The following floating-point exceptions are signalling: IEEE_UNDERFLOW_FLAG IEEE_DENORMAL
Note: The following floating-point exceptions are signalling: IEEE_UNDERFLOW_FLAG IEEE_DENORMAL
Note: The following floating-point exceptions are signalling: IEEE_UNDERFLOW_FLAG IEEE_DENORMAL
Note: The following floating-point exceptions are signalling: IEEE_UNDERFLOW_FLAG IEEE_DENORMAL
Note: The following floating-point exceptions are signalling: IEEE_UNDERFLOW_FLAG IEEE_DENORMAL
Note: The following floating-point exceptions are signalling: IEEE_UNDERFLOW_FLAG IEEE_DENORMAL
Note: The following floating-point exceptions are signalling: IEEE_UNDERFLOW_FLAG IEEE_DENORMAL
Note: The following floating-point exceptions are signalling: IEEE_UNDERFLOW_FLAG IEEE_DENORMAL
Note: The following floating-point exceptions are signalling: IEEE_UNDERFLOW_FLAG IEEE_DENORMAL
Note: The following floating-point exceptions are signalling: IEEE_UNDERFLOW_FLAG IEEE_DENORMAL
Note: The following floating-point exceptions are signalling: IEEE_UNDERFLOW_FLAG IEEE_DENORMAL
Note: The following floating-point exceptions are signalling: IEEE_UNDERFLOW_FLAG IEEE_DENORMAL
Note: The following floating-point exceptions are signalling: IEEE_UNDERFLOW_FLAG IEEE_DENORMAL
Note: The following floating-point exceptions are signalling: IEEE_UNDERFLOW_FLAG IEEE_DENORMAL
Note: The following floating-point exceptions are signalling: IEEE_UNDERFLOW_FLAG IEEE_DENORMAL
Note: The following floating-point exceptions are signalling: IEEE_UNDERFLOW_FLAG IEEE_DENORMAL
Note: The following floating-point exceptions are signalling: IEEE_UNDERFLOW_FLAG IEEE_DENORMAL
Note: The following floating-point exceptions are signalling: IEEE_UNDERFLOW_FLAG IEEE_DENORMAL
Note: The following floating-point exceptions are signalling: IEEE_UNDERFLOW_FLAG IEEE_DENORMAL
Note: The following floating-point exceptions are signalling: IEEE_UNDERFLOW_FLAG IEEE_DENORMAL
Note: The following floating-point exceptions are signalling: IEEE_UNDERFLOW_FLAG IEEE_DENORMAL
Note: The following floating-point exceptions are signalling: IEEE_UNDERFLOW_FLAG IEEE_DENORMAL
Note: The following floating-point exceptions are signalling: IEEE_UNDERFLOW_FLAG IEEE_DENORMAL
Note: The following floating-point exceptions are signalling: IEEE_UNDERFLOW_FLAG IEEE_DENORMAL
Note: The following floating-point exceptions are signalling: IEEE_UNDERFLOW_FLAG IEEE_DENORMAL
Note: The following floating-point exceptions are signalling: IEEE_UNDERFLOW_FLAG IEEE_DENORMAL
Note: The following floating-point exceptions are signalling: IEEE_UNDERFLOW_FLAG IEEE_DENORMAL
Note: The following floating-point exceptions are signalling: IEEE_UNDERFLOW_FLAG IEEE_DENORMAL
Note: The following floating-point exceptions are signalling: IEEE_UNDERFLOW_FLAG IEEE_DENORMAL
Note: The following floating-point exceptions are signalling: IEEE_UNDERFLOW_FLAG IEEE_DENORMAL
Note: The following floating-point exceptions are signalling: IEEE_UNDERFLOW_FLAG IEEE_DENORMAL
Note: The following floating-point exceptions are signalling: IEEE_UNDERFLOW_FLAG IEEE_DENORMAL
Note: The following floating-point exceptions are signalling: IEEE_UNDERFLOW_FLAG IEEE_DENORMAL
Note: The following floating-point exceptions are signalling: IEEE_UNDERFLOW_FLAG IEEE_DENORMAL
Note: The following floating-point exceptions are signalling: IEEE_UNDERFLOW_FLAG IEEE_DENORMAL
Note: The following floating-point exceptions are signalling: IEEE_UNDERFLOW_FLAG IEEE_DENORMAL
Note: The following floating-point exceptions are signalling: IEEE_UNDERFLOW_FLAG IEEE_DENORMAL
Note: The following floating-point exceptions are signalling: IEEE_UNDERFLOW_FLAG IEEE_DENORMAL
Note: The following floating-point exceptions are signalling: IEEE_UNDERFLOW_FLAG IEEE_DENORMAL
Note: The following floating-point exceptions are signalling: IEEE_UNDERFLOW_FLAG IEEE_DENORMAL
Note: The following floating-point exceptions are signalling: IEEE_UNDERFLOW_FLAG IEEE_DENORMAL
Note: The following floating-point exceptions are signalling: IEEE_UNDERFLOW_FLAG IEEE_DENORMAL
Note: The following floating-point exceptions are signalling: IEEE_UNDERFLOW_FLAG IEEE_DENORMAL
Note: The following floating-point exceptions are signalling: IEEE_UNDERFLOW_FLAG IEEE_DENORMAL
Note: The following floating-point exceptions are signalling: IEEE_UNDERFLOW_FLAG IEEE_DENORMAL
Note: The following floating-point exceptions are signalling: IEEE_UNDERFLOW_FLAG IEEE_DENORMAL
Note: The following floating-point exceptions are signalling: IEEE_UNDERFLOW_FLAG IEEE_DENORMAL
Note: The following floating-point exceptions are signalling: IEEE_UNDERFLOW_FLAG IEEE_DENORMAL
Note: The following floating-point exceptions are signalling: IEEE_UNDERFLOW_FLAG IEEE_DENORMAL
Note: The following floating-point exceptions are signalling: IEEE_UNDERFLOW_FLAG IEEE_DENORMAL
Note: The following floating-point exceptions are signalling: IEEE_UNDERFLOW_FLAG IEEE_DENORMAL
Note: The following floating-point exceptions are signalling: IEEE_UNDERFLOW_FLAG IEEE_DENORMAL
Note: The following floating-point exceptions are signalling: IEEE_UNDERFLOW_FLAG IEEE_DENORMAL
Note: The following floating-point exceptions are signalling: IEEE_UNDERFLOW_FLAG IEEE_DENORMAL
Note: The following floating-point exceptions are signalling: IEEE_UNDERFLOW_FLAG IEEE_DENORMAL
Note: The following floating-point exceptions are signalling: IEEE_UNDERFLOW_FLAG IEEE_DENORMAL
