
     Program PWSCF v.7.5 starts on 30Aug2026 at  4:39:45 

     This program is part of the open-source Quantum ESPRESSO suite
     for quantum simulation of materials; please cite
         "P. Giannozzi et al., J. Phys.:Condens. Matter 21 395502 (2009);
         "P. Giannozzi et al., J. Phys.:Condens. Matter 29 465901 (2017);
         "P. Giannozzi et al., J. Chem. Phys. 152 154105 (2020);
          URL http://www.quantum-espresso.org", 
     in publications or presentations arising from this work. More details at
     http://www.quantum-espresso.org/quote

     Parallel version (MPI & OpenMP), running on      48 processor cores
     Number of MPI processes:                48
     Threads/MPI process:                     1

     MPI processes distributed on     1 nodes
     353118 MiB available memory on the printing compute node when the environment starts

     Reading input from inputs_runtime/hbn_k3_attempt2.in

     Current dimensions of program PWSCF are:
     Max number of different atomic species (ntypx) = 10
     Max number of k-points (npk) =  40000
     Max angular momentum in pseudopotentials (lmaxx) =  4
     file N.pbe-n-kjpaw_psl.1.0.0.UPF: wavefunction(s)  2S renormalized

     K-points division:     npool     =       3
     R & G space division:  proc/nbgrp/npool/nimage =      16
     Subspace diagonalization in iterative solution of the eigenvalue problem:
     one sub-group per band group will be used
     ELPA distributed-memory algorithm (size of sub-group:  2*  2 procs)


     Parallelization info
     --------------------
     sticks:   dense  smooth     PW     G-vecs:    dense   smooth      PW
     Min        1254     626    162               452622   160028   21328
     Max        1255     628    165               452633   160037   21335
     Sum       20065   10033   2611              7241989  2560523  341313

     Using Slab Decomposition


     Title: 
     hBN-cap matched hbn k3 attempt 2                                           


     bravais-lattice index     =            0
     lattice parameter (alat)  =      26.9796  a.u.
     unit-cell volume          =   53606.0115 (a.u.)^3
     number of atoms/cell      =           62
     number of atomic types    =            2
     number of electrons       =       248.00
     number of Kohn-Sham states=          160
     kinetic-energy cutoff     =      50.0000  Ry
     charge density cutoff     =     400.0000  Ry
     scf convergence threshold =      1.0E-08
     mixing beta               =       0.0050
     number of iterations used =           12  local-TF  mixing
     Exchange-correlation= SLA  PW   PBX  PBC
                           (   1   4   3   4   0   0   0)

     celldm(1)=  26.979621  celldm(2)=   0.000000  celldm(3)=   0.000000
     celldm(4)=   0.000000  celldm(5)=   0.000000  celldm(6)=   0.000000

     crystal axes: (cart. coord. in units of alat)
               a(1) = (   1.000000   0.000000   0.000000 )  
               a(2) = (  -0.500000   0.866025   0.000000 )  
               a(3) = (   0.000000   0.000000   3.151923 )  

     reciprocal axes: (cart. coord. in units 2 pi/alat)
               b(1) = (  1.000000  0.577351 -0.000000 )  
               b(2) = (  0.000000  1.154701  0.000000 )  
               b(3) = (  0.000000 -0.000000  0.317267 )  


     PseudoPot. # 1 for B  read from file:
     ./REDACTED_PATH
     MD5 check sum: 8c825a5969375aca5c2c6ad5945b3059
     Pseudo is Projector augmented-wave + core cor, Zval =  3.0
     Generated using &quot;atomic&quot; code by A. Dal Corso  v.6.3
     Shape of augmentation charge: PSQ
     Using radial grid of 1059 points,  4 beta functions with: 
                l(1) =   0
                l(2) =   0
                l(3) =   1
                l(4) =   1
     Q(r) pseudized with 0 coefficients 


     PseudoPot. # 2 for N  read from file:
     ./REDACTED_PATH
     MD5 check sum: 14c48229446f9f2d411169a3abcbc3fa
     Pseudo is Projector augmented-wave + core cor, Zval =  5.0
     Generated using &quot;atomic&quot; code by A. Dal Corso  v.6.3
     Shape of augmentation charge: PSQ
     Using radial grid of 1085 points,  4 beta functions with: 
                l(1) =   0
                l(2) =   0
                l(3) =   1
                l(4) =   1
     Q(r) pseudized with 0 coefficients 


     atomic species   valence    mass     pseudopotential
     B                 3.00    10.81100     B ( 1.00)
     N                 5.00    14.00700     N ( 1.00)

     Starting magnetic structure 
     atomic species   magnetization
     B               0.000
     N               0.000

     No symmetry found


                                    s                        frac. trans.

      isym =  1     identity                                     

 cryst.   s( 1) = (     1          0          0      )
                  (     0          1          0      )
                  (     0          0          1      )

 cart.    s( 1) = (  1.0000000  0.0000000  0.0000000 )
                  (  0.0000000  1.0000000  0.0000000 )
                  (  0.0000000  0.0000000  1.0000000 )


   Cartesian axes

     site n.     atom                  positions (alat units)
         1        B      tau(   1) = (  -0.0268333   0.1707980   1.7436202  )
         2        B      tau(   2) = (   0.9086503   0.0030854   1.7434470  )
         3        B      tau(   3) = (   0.3441541   0.7015000   1.7438299  )
         4        B      tau(   4) = (   0.2795859   0.5338965   1.7429295  )
         5        B      tau(   5) = (   0.2150211   0.3663068   1.7434337  )
         6        B      tau(   6) = (   0.1505585   0.1987310   1.7434598  )
         7        B      tau(   7) = (   0.0860048   0.0310464   1.7434679  )
         8        B      tau(   8) = (   0.5215116   0.7294580   1.7453052  )
         9        B      tau(   9) = (   0.4570305   0.5618708   1.7444304  )
        10        B      tau(  10) = (   0.3924841   0.3942214   1.7427876  )
        11        B      tau(  11) = (   0.3280060   0.2265767   1.7436256  )
        12        B      tau(  12) = (   0.2635005   0.0589841   1.7434671  )
        13        B      tau(  13) = (  -0.3011088   0.7574126   1.7436283  )
        14        B      tau(  14) = (   0.6343932   0.5898573   1.7443394  )
        15        B      tau(  15) = (   0.5698894   0.4222060   1.7432285  )
        16        B      tau(  16) = (   0.5053612   0.2544969   1.7443393  )
        17        B      tau(  17) = (   0.4409051   0.0869390   1.7452985  )
        18        B      tau(  18) = (  -0.1236066   0.7853965   1.7434411  )
        19        B      tau(  19) = (  -0.1881630   0.6177501   1.7427938  )
        20        B      tau(  20) = (  -0.2526299   0.4501188   1.7432337  )
        21        B      tau(  21) = (   0.6828031   0.2824602   1.7432265  )
        22        B      tau(  22) = (   0.6182806   0.1148904   1.7444281  )
        23        B      tau(  23) = (   0.0537972   0.8133474   1.7438206  )
        24        B      tau(  24) = (  -0.0107520   0.6456871   1.7429353  )
        25        B      tau(  25) = (  -0.0752475   0.4780269   1.7444310  )
        26        B      tau(  26) = (  -0.1396911   0.3104319   1.7443364  )
        27        B      tau(  27) = (   0.7957429   0.1428157   1.7427880  )
        28        B      tau(  28) = (   0.2312312   0.8412312   1.7429345  )
        29        B      tau(  29) = (   0.1666885   0.6736052   1.7425708  )
        30        B      tau(  30) = (   0.1021137   0.5059678   1.7438177  )
        31        B      tau(  31) = (   0.0376471   0.3383910   1.7452861  )
        32        N      tau(  32) = (   0.2634930   0.6363286   1.7430011  )
        33        N      tau(  33) = (   0.1988763   0.4687584   1.7434609  )
        34        N      tau(  34) = (   0.1343883   0.3012139   1.7447005  )
        35        N      tau(  35) = (   0.0699110   0.1335405   1.7434252  )
        36        N      tau(  36) = (   0.5053379   0.8318266   1.7447203  )
        37        N      tau(  37) = (   0.4409078   0.6642542   1.7454723  )
        38        N      tau(  38) = (   0.3764091   0.4966922   1.7432347  )
        39        N      tau(  39) = (   0.3118241   0.3290462   1.7427340  )
        40        N      tau(  40) = (   0.2473676   0.1614223   1.7434288  )
        41        N      tau(  41) = (  -0.3172148   0.8598241   1.7434328  )
        42        N      tau(  42) = (  -0.3817738   0.6922618   1.7453860  )
        43        N      tau(  43) = (   0.5537963   0.5246884   1.7446419  )
        44        N      tau(  44) = (   0.4892515   0.3569593   1.7432835  )
        45        N      tau(  45) = (   0.4247602   0.1892941   1.7453846  )
        46        N      tau(  46) = (   0.3603378   0.0217471   1.7447142  )
        47        N      tau(  47) = (  -0.2042769   0.7201914   1.7427367  )
        48        N      tau(  48) = (  -0.2688166   0.5525777   1.7432859  )
        49        N      tau(  49) = (   0.6666877   0.3849292   1.7429547  )
        50        N      tau(  50) = (   0.6020983   0.2172829   1.7446425  )
        51        N      tau(  51) = (   0.5376754   0.0497357   1.7454629  )
        52        N      tau(  52) = (  -0.0268086   0.7481517   1.7434669  )
        53        N      tau(  53) = (  -0.0913833   0.5804364   1.7432458  )
        54        N      tau(  54) = (  -0.1558307   0.4128165   1.7446501  )
        55        N      tau(  55) = (   0.7796289   0.2452505   1.7432789  )
        56        N      tau(  56) = (   0.7150382   0.0776594   1.7432393  )
        57        N      tau(  57) = (   0.1505678   0.7760778   1.7429979  )
        58        N      tau(  58) = (   0.0860037   0.6084073   1.7430006  )
        59        N      tau(  59) = (   0.0214812   0.4407987   1.7454527  )
        60        N      tau(  60) = (  -0.0429225   0.2732320   1.7453746  )
        61        N      tau(  61) = (   0.8925166   0.1055500   1.7427360  )
        62        N      tau(  62) = (   0.3279967   0.8039032   1.7434758  )

     --------------------------------------------
     DFT-D3 Dispersion Correction (3-body terms):
     --------------------------------------------
       Reference C6 values for interpolation: 

         atom   Coordination number   C6
         B          0.000           214.36
         B          0.971           150.74
         B          1.944           106.23
         B          2.913            62.89
         B          4.586            56.06
         N          0.000            50.54
         N          0.994            44.25
         N          2.014            39.35
         N          2.990            31.16

       Values used:

         atom   Coordination number  R0_AB[au]  C6      C8
         B          3.242            3.039     62.95   2508.14
         B          3.242            3.039     62.95   2508.14
         B          3.243            3.039     62.95   2508.13
         B          3.242            3.039     62.95   2508.15
         B          3.242            3.039     62.95   2508.14
         B          3.242            3.039     62.95   2508.14
         B          3.242            3.039     62.95   2508.14
         B          3.243            3.039     62.94   2508.12
         B          3.243            3.039     62.94   2508.13
         B          3.242            3.039     62.95   2508.15
         B          3.242            3.039     62.95   2508.14
         B          3.242            3.039     62.95   2508.14
         B          3.242            3.039     62.95   2508.14
         B          3.243            3.039     62.95   2508.13
         B          3.242            3.039     62.95   2508.15
         B          3.243            3.039     62.95   2508.13
         B          3.243            3.039     62.94   2508.12
         B          3.242            3.039     62.95   2508.14
         B          3.242            3.039     62.95   2508.15
         B          3.242            3.039     62.95   2508.15
         B          3.242            3.039     62.95   2508.15
         B          3.243            3.039     62.94   2508.13
         B          3.243            3.039     62.95   2508.13
         B          3.242            3.039     62.95   2508.15
         B          3.243            3.039     62.94   2508.13
         B          3.243            3.039     62.95   2508.13
         B          3.242            3.039     62.95   2508.15
         B          3.242            3.039     62.95   2508.15
         B          3.242            3.039     62.95   2508.15
         B          3.243            3.039     62.95   2508.13
         B          3.243            3.039     62.94   2508.12
         N          3.094            2.478     31.24    689.14
         N          3.094            2.478     31.24    689.14
         N          3.094            2.478     31.24    689.14
         N          3.094            2.478     31.24    689.14
         N          3.094            2.478     31.24    689.14
         N          3.094            2.478     31.24    689.13
         N          3.094            2.478     31.24    689.14
         N          3.094            2.478     31.24    689.14
         N          3.094            2.478     31.24    689.14
         N          3.094            2.478     31.24    689.14
         N          3.094            2.478     31.24    689.14
         N          3.094            2.478     31.24    689.14
         N          3.094            2.478     31.24    689.14
         N          3.094            2.478     31.24    689.14
         N          3.094            2.478     31.24    689.14
         N          3.094            2.478     31.24    689.14
         N          3.094            2.478     31.24    689.14
         N          3.093            2.478     31.24    689.14
         N          3.094            2.478     31.24    689.14
         N          3.094            2.478     31.24    689.13
         N          3.094            2.478     31.24    689.14
         N          3.094            2.478     31.24    689.14
         N          3.094            2.478     31.24    689.14
         N          3.094            2.478     31.24    689.14
         N          3.094            2.478     31.24    689.14
         N          3.094            2.478     31.24    689.14
         N          3.094            2.478     31.24    689.14
         N          3.094            2.478     31.24    689.13
         N          3.094            2.478     31.24    689.14
         N          3.094            2.478     31.24    689.14
         N          3.094            2.478     31.24    689.14

         Molecular C6 ( Ry / a.u.^6 ) =    174147.02


   Crystallographic axes

     site n.     atom                  positions (cryst. coord.)
         1        B      tau(   1) = (  0.0717770  0.1972207  0.5531926  )
         2        B      tau(   2) = (  0.9104316  0.0035627  0.5531377  )
         3        B      tau(   3) = (  0.7491655  0.8100227  0.5532591  )
         4        B      tau(   4) = (  0.5878313  0.6164909  0.5529734  )
         5        B      tau(   5) = (  0.4265085  0.4229748  0.5531334  )
         6        B      tau(   6) = (  0.2652960  0.2294749  0.5531417  )
         7        B      tau(   7) = (  0.1039295  0.0358493  0.5531443  )
         8        B      tau(   8) = (  0.9426645  0.8423059  0.5537272  )
         9        B      tau(   9) = (  0.7814269  0.6487929  0.5534496  )
        10        B      tau(  10) = (  0.6200881  0.4552079  0.5529284  )
        11        B      tau(  11) = (  0.4588202  0.2616284  0.5531943  )
        12        B      tau(  12) = (  0.2975550  0.0681090  0.5531440  )
        13        B      tau(  13) = (  0.1361838  0.8745851  0.5531952  )
        14        B      tau(  14) = (  0.9749477  0.6811089  0.5534208  )
        15        B      tau(  15) = (  0.8136503  0.4875218  0.5530683  )
        16        B      tau(  16) = (  0.6522952  0.2938678  0.5534207  )
        17        B      tau(  17) = (  0.4910994  0.1003886  0.5537250  )
        18        B      tau(  18) = (  0.3298425  0.9068981  0.5531358  )
        19        B      tau(  19) = (  0.1684953  0.7133167  0.5529304  )
        20        B      tau(  20) = (  0.0072464  0.5197527  0.5530700  )
        21        B      tau(  21) = (  0.8458817  0.3261571  0.5530677  )
        22        B      tau(  22) = (  0.6846126  0.1326640  0.5534489  )
        23        B      tau(  23) = (  0.5233838  0.9391732  0.5532562  )
        24        B      tau(  24) = (  0.3620358  0.7455755  0.5529753  )
        25        B      tau(  25) = (  0.2007416  0.5519782  0.5534498  )
        26        B      tau(  26) = (  0.0395370  0.3584561  0.5534198  )
        27        B      tau(  27) = (  0.8781976  0.1649095  0.5529285  )
        28        B      tau(  28) = (  0.7169164  0.9713706  0.5529750  )
        29        B      tau(  29) = (  0.5555949  0.7778127  0.5528597  )
        30        B      tau(  30) = (  0.3942345  0.5842416  0.5532552  )
        31        B      tau(  31) = (  0.2330173  0.3907405  0.5537211  )
        32        N      tau(  32) = (  0.6308776  0.7347694  0.5529962  )
        33        N      tau(  33) = (  0.4695142  0.5412758  0.5531421  )
        34        N      tau(  34) = (  0.3082943  0.3478120  0.5535353  )
        35        N      tau(  35) = (  0.1470107  0.1541993  0.5531307  )
        36        N      tau(  36) = (  0.9855935  0.9605111  0.5535416  )
        37        N      tau(  37) = (  0.8244153  0.7670150  0.5537802  )
        38        N      tau(  38) = (  0.6631746  0.5735311  0.5530703  )
        39        N      tau(  39) = (  0.5017991  0.3799500  0.5529114  )
        40        N      tau(  40) = (  0.3405649  0.1863945  0.5531319  )
        41        N      tau(  41) = (  0.1792052  0.9928399  0.5531331  )
        42        N      tau(  42) = (  0.0179039  0.7993554  0.5537528  )
        43        N      tau(  43) = (  0.8567254  0.6058583  0.5535167  )
        44        N      tau(  44) = (  0.6953422  0.4121813  0.5530858  )
        45        N      tau(  45) = (  0.5340493  0.2185781  0.5537524  )
        46        N      tau(  46) = (  0.3728935  0.0251114  0.5535397  )
        47        N      tau(  47) = (  0.2115260  0.8316057  0.5529123  )
        48        N      tau(  48) = (  0.0502144  0.6380621  0.5530865  )
        49        N      tau(  49) = (  0.8889268  0.4444781  0.5529815  )
        50        N      tau(  50) = (  0.7275467  0.2508968  0.5535169  )
        51        N      tau(  51) = (  0.5663903  0.0574299  0.5537772  )
        52        N      tau(  52) = (  0.4051371  0.8638916  0.5531440  )
        53        N      tau(  53) = (  0.2437320  0.6702306  0.5530738  )
        54        N      tau(  54) = (  0.0825091  0.4766796  0.5535193  )
        55        N      tau(  55) = (  0.9212244  0.2831910  0.5530843  )
        56        N      tau(  56) = (  0.7598749  0.0896734  0.5530717  )
        57        N      tau(  57) = (  0.5986367  0.8961378  0.5529952  )
        58        N      tau(  58) = (  0.4372679  0.7025285  0.5529960  )
        59        N      tau(  59) = (  0.2759766  0.5089907  0.5537740  )
        60        N      tau(  60) = (  0.1148282  0.3155013  0.5537492  )
        61        N      tau(  61) = (  0.9534560  0.1218787  0.5529121  )
        62        N      tau(  62) = (  0.7921307  0.9282678  0.5531468  )

     number of k points=     5  Marzari-Vanderbilt smearing, width (Ry)=  0.0200
                       cart. coord. in units 2pi/alat
        k(    1) = (   0.0000000   0.0000000   0.0000000), wk =   0.1111111
        k(    2) = (   0.0000000   0.3849004   0.0000000), wk =   0.2222222
        k(    3) = (   0.3333333   0.1924502   0.0000000), wk =   0.2222222
        k(    4) = (   0.3333333   0.5773505   0.0000000), wk =   0.2222222
        k(    5) = (   0.3333333  -0.1924502   0.0000000), wk =   0.2222222

                       cryst. coord.
        k(    1) = (   0.0000000   0.0000000   0.0000000), wk =   0.1111111
        k(    2) = (   0.0000000   0.3333333   0.0000000), wk =   0.2222222
        k(    3) = (   0.3333333   0.0000000   0.0000000), wk =   0.2222222
        k(    4) = (   0.3333333   0.3333333   0.0000000), wk =   0.2222222
        k(    5) = (   0.3333333  -0.3333333   0.0000000), wk =   0.2222222

     Dense  grid:  7241989 G-vectors     FFT dimensions: ( 180, 180, 576)

     Smooth grid:  2560523 G-vectors     FFT dimensions: ( 125, 125, 384)

     Dynamical RAM for                 wfc:      48.84 MB

     Dynamical RAM for     wfc (w. buffer):     244.18 MB

     Dynamical RAM for           str. fact:      13.81 MB

     Dynamical RAM for           local pot:       0.00 MB

     Dynamical RAM for          nlocal pot:     151.39 MB

     Dynamical RAM for                qrad:       0.92 MB

     Dynamical RAM for          rho,v,vnew:      94.83 MB

     Dynamical RAM for               rhoin:      31.61 MB

     Dynamical RAM for            rho*nmix:     331.51 MB

     Dynamical RAM for           G-vectors:      27.12 MB

     Dynamical RAM for          h,s,v(r/c):       1.17 MB

     Dynamical RAM for          <psi|beta>:       1.21 MB

     Dynamical RAM for                 psi:      97.67 MB

     Dynamical RAM for                hpsi:      97.67 MB

     Dynamical RAM for                spsi:      97.67 MB

     Dynamical RAM for      wfcinit/wfcrot:      98.26 MB

     Dynamical RAM for           addusdens:     181.87 MB

     Dynamical RAM for          addusforce:     315.45 MB

     Dynamical RAM for         addusstress:     123.17 MB

     Estimated static dynamical RAM per process >     637.97 MB

     Estimated max dynamical RAM per process >       1.25 GB

     Estimated total dynamical RAM >      49.87 GB
 ----2D----2D----2D----2D----2D----2D----2D----2D----2D----2D----2D----2D
  The code is running with the 2D cutoff
  Please refer to:
  Sohier, T., Calandra, M., & Mauri, F. (2017), 
  Density functional perturbation theory for gated two-dimensional heterostructures:
  Theoretical developments and application to flexural phonons in graphene.
  Physical Review B, 96(7), 75448. https://doi.org/10.1103/PhysRevB.96.075448
 ----2D----2D----2D----2D----2D----2D----2D----2D----2D----2D----2D----2D
     Generating pointlists ...
     new r_m :   0.0427 (alat units)  1.1532 (a.u.) for type    1
     new r_m :   0.0427 (alat units)  1.1532 (a.u.) for type    2

     The initial density is read from file :
     ./REDACTED_PATH


     negative rho (up, down):  6.299E-03 6.299E-03
     Starting wfcs are  248 randomized atomic wfcs
     Checking if some PAW data can be deallocated... 
       PAW data deallocated on   31 nodes for type:  1
       PAW data deallocated on   17 nodes for type:  2

     total cpu time spent up to now is       40.2 secs

     per-process dynamical memory:   798.4 Mb

     Self-consistent Calculation

     iteration #  1     ecut=    50.00 Ry     beta= 0.01
     Davidson diagonalization with overlap

---- Real-time Memory Report at c_bands before calling an iterative solver
           857 MiB given to the printing process from OS
           784 MiB allocation reported by mallinfo(arena+hblkhd)
        325346 MiB available memory on the node where the printing process lives
------------------
     ethr =  1.00E-05,  avg # of iterations = 37.2

     Threshold (ethr) on eigenvalues was too large:
     Diagonalizing with lowered threshold

     Davidson diagonalization with overlap

---- Real-time Memory Report at c_bands before calling an iterative solver
          1098 MiB given to the printing process from OS
           821 MiB allocation reported by mallinfo(arena+hblkhd)
        323146 MiB available memory on the node where the printing process lives
------------------
     ethr =  4.66E-09,  avg # of iterations =  6.0

     negative rho (up, down):  6.299E-03 6.299E-03

     total cpu time spent up to now is      394.4 secs

     total energy              =   -1236.04085632 Ry
     estimated scf accuracy    <       0.00000004 Ry

     total magnetization       =    -0.00 Bohr mag/cell
     absolute magnetization    =     0.00 Bohr mag/cell

     iteration #  2     ecut=    50.00 Ry     beta= 0.01
     Davidson diagonalization with overlap

---- Real-time Memory Report at c_bands before calling an iterative solver
          1104 MiB given to the printing process from OS
           922 MiB allocation reported by mallinfo(arena+hblkhd)
        319391 MiB available memory on the node where the printing process lives
------------------
     ethr =  1.80E-11,  avg # of iterations =  5.0

     negative rho (up, down):  6.299E-03 6.299E-03

     total cpu time spent up to now is      494.5 secs

     total energy              =   -1236.04085647 Ry
     estimated scf accuracy    <       0.00000002 Ry

     total magnetization       =     0.00 Bohr mag/cell
     absolute magnetization    =     0.00 Bohr mag/cell

     iteration #  3     ecut=    50.00 Ry     beta= 0.01
     Davidson diagonalization with overlap

---- Real-time Memory Report at c_bands before calling an iterative solver
          1123 MiB given to the printing process from OS
           932 MiB allocation reported by mallinfo(arena+hblkhd)
        319745 MiB available memory on the node where the printing process lives
------------------
     ethr =  7.00E-12,  avg # of iterations =  1.0

     negative rho (up, down):  6.299E-03 6.299E-03

     total cpu time spent up to now is      550.4 secs

     total energy              =   -1236.04085646 Ry
     estimated scf accuracy    <       0.00000002 Ry

     total magnetization       =    -0.00 Bohr mag/cell
     absolute magnetization    =     0.00 Bohr mag/cell

     iteration #  4     ecut=    50.00 Ry     beta= 0.01
     Davidson diagonalization with overlap

---- Real-time Memory Report at c_bands before calling an iterative solver
          1123 MiB given to the printing process from OS
           941 MiB allocation reported by mallinfo(arena+hblkhd)
        319676 MiB available memory on the node where the printing process lives
------------------
     ethr =  6.94E-12,  avg # of iterations =  2.0

     negative rho (up, down):  6.299E-03 6.299E-03

     Magnetic moment per site  (integrated on atomic sphere of radius R)
     atom   1 (R=0.043)  charge=  0.8920  magn= -0.0000
     atom   2 (R=0.043)  charge=  0.8927  magn= -0.0000
     atom   3 (R=0.043)  charge=  0.8928  magn=  0.0000
     atom   4 (R=0.043)  charge=  0.8926  magn= -0.0000
     atom   5 (R=0.043)  charge=  0.8927  magn= -0.0000
     atom   6 (R=0.043)  charge=  0.8915  magn=  0.0000
     atom   7 (R=0.043)  charge=  0.8915  magn=  0.0000
     atom   8 (R=0.043)  charge=  0.8929  magn= -0.0000
     atom   9 (R=0.043)  charge=  0.8927  magn= -0.0000
     atom  10 (R=0.043)  charge=  0.8922  magn= -0.0000
     atom  11 (R=0.043)  charge=  0.8920  magn=  0.0000
     atom  12 (R=0.043)  charge=  0.8915  magn=  0.0000
     atom  13 (R=0.043)  charge=  0.8920  magn= -0.0000
     atom  14 (R=0.043)  charge=  0.8923  magn= -0.0000
     atom  15 (R=0.043)  charge=  0.8911  magn= -0.0000
     atom  16 (R=0.043)  charge=  0.8923  magn=  0.0000
     atom  17 (R=0.043)  charge=  0.8930  magn=  0.0000
     atom  18 (R=0.043)  charge=  0.8927  magn= -0.0000
     atom  19 (R=0.043)  charge=  0.8921  magn=  0.0000
     atom  20 (R=0.043)  charge=  0.8911  magn=  0.0000
     atom  21 (R=0.043)  charge=  0.8911  magn=  0.0000
     atom  22 (R=0.043)  charge=  0.8927  magn= -0.0000
     atom  23 (R=0.043)  charge=  0.8928  magn= -0.0000
     atom  24 (R=0.043)  charge=  0.8926  magn=  0.0000
     atom  25 (R=0.043)  charge=  0.8927  magn=  0.0000
     atom  26 (R=0.043)  charge=  0.8923  magn= -0.0000
     atom  27 (R=0.043)  charge=  0.8921  magn= -0.0000
     atom  28 (R=0.043)  charge=  0.8926  magn=  0.0000
     atom  29 (R=0.043)  charge=  0.8921  magn=  0.0000
     atom  30 (R=0.043)  charge=  0.8928  magn= -0.0000
     atom  31 (R=0.043)  charge=  0.8929  magn= -0.0000
     atom  32 (R=0.043)  charge=  2.9323  magn=  0.0000
     atom  33 (R=0.043)  charge=  2.9327  magn=  0.0000
     atom  34 (R=0.043)  charge=  2.9331  magn=  0.0000
     atom  35 (R=0.043)  charge=  2.9326  magn= -0.0000
     atom  36 (R=0.043)  charge=  2.9331  magn= -0.0000
     atom  37 (R=0.043)  charge=  2.9326  magn=  0.0000
     atom  38 (R=0.043)  charge=  2.9332  magn= -0.0000
     atom  39 (R=0.043)  charge=  2.9329  magn= -0.0000
     atom  40 (R=0.043)  charge=  2.9327  magn= -0.0000
     atom  41 (R=0.043)  charge=  2.9327  magn=  0.0000
     atom  42 (R=0.043)  charge=  2.9327  magn=  0.0000
     atom  43 (R=0.043)  charge=  2.9326  magn=  0.0000
     atom  44 (R=0.043)  charge=  2.9335  magn=  0.0000
     atom  45 (R=0.043)  charge=  2.9328  magn= -0.0000
     atom  46 (R=0.043)  charge=  2.9332  magn= -0.0000
     atom  47 (R=0.043)  charge=  2.9330  magn= -0.0000
     atom  48 (R=0.043)  charge=  2.9335  magn= -0.0000
     atom  49 (R=0.043)  charge=  2.9332  magn= -0.0000
     atom  50 (R=0.043)  charge=  2.9326  magn= -0.0000
     atom  51 (R=0.043)  charge=  2.9326  magn=  0.0000
     atom  52 (R=0.043)  charge=  2.9327  magn=  0.0000
     atom  53 (R=0.043)  charge=  2.9333  magn= -0.0000
     atom  54 (R=0.043)  charge=  2.9326  magn=  0.0000
     atom  55 (R=0.043)  charge=  2.9335  magn=  0.0000
     atom  56 (R=0.043)  charge=  2.9333  magn= -0.0000
     atom  57 (R=0.043)  charge=  2.9323  magn= -0.0000
     atom  58 (R=0.043)  charge=  2.9323  magn=  0.0000
     atom  59 (R=0.043)  charge=  2.9325  magn=  0.0000
     atom  60 (R=0.043)  charge=  2.9327  magn=  0.0000
     atom  61 (R=0.043)  charge=  2.9330  magn=  0.0000
     atom  62 (R=0.043)  charge=  2.9327  magn= -0.0000

     total cpu time spent up to now is      613.6 secs

     End of self-consistent calculation

 ------ SPIN UP ------------


          k = 0.0000 0.0000 0.0000 (320189 PWs)   bands (ev):

   -23.1574 -22.5840 -22.5839 -22.5799 -22.5776 -22.5776 -22.5768 -21.5294
   -21.5288 -21.5288 -21.5246 -21.5246 -21.5223 -21.0865 -21.0861 -21.0861
   -21.0848 -21.0844 -21.0844 -20.2533 -20.2531 -20.2531 -20.2509 -20.2509
   -20.2506 -20.0789 -20.0789 -20.0768 -20.0759 -20.0750 -20.0750 -14.3218
   -14.3218 -14.3216 -14.3198 -14.3197 -14.3197 -13.5533 -13.5522 -13.5521
   -13.5521 -13.5505 -13.5505 -13.0011 -13.0011 -13.0007 -12.9977 -12.9975
   -12.9975 -12.0899 -12.0899 -12.0886 -12.0880 -12.0880 -12.0878 -11.8412
   -11.8406 -11.8406 -11.8396 -11.8396 -11.8393 -10.7934 -10.4143 -10.4143
   -10.4141 -10.4127 -10.4126 -10.4125 -10.0222 -10.0221 -10.0190 -10.0170
   -10.0170 -10.0160  -9.8593  -9.8577  -9.8577  -9.8545  -9.8545  -9.8541
    -9.7586  -9.7586  -9.7580  -9.7520  -9.7519  -9.7514  -9.4526  -9.4525
    -9.4506  -9.4500  -9.4499  -9.4463  -8.5800  -8.5794  -8.5794  -8.5759
    -8.5759  -8.5740  -8.2721  -8.2683  -8.2671  -8.2670  -8.2655  -8.2654
    -7.9533  -7.9532  -7.9532  -7.9522  -7.9515  -7.9515  -7.3060  -7.3060
    -6.7007  -6.7007  -6.7006  -6.6989  -6.6989  -6.6988  -6.4414  -6.4414
    -6.4395  -6.4389  -6.4377  -6.4377  -1.1828  -1.1060  -1.1060  -1.1060
    -1.1041  -1.1040  -1.1038  -0.9062  -0.9062  -0.9036  -0.9036  -0.9033
    -0.9028  -0.4276  -0.2767  -0.1979  -0.1874  -0.1873  -0.1873  -0.1861
    -0.1861  -0.1857   0.0300   0.1667   0.4602   0.4602   0.4607   0.4654
     0.4654   0.4661   0.5200   0.5202   0.5203   0.5207   0.5207   0.5208

     occupation numbers 
     1.0000   1.0000   1.0000   1.0000   1.0000   1.0000   1.0000   1.0000
     1.0000   1.0000   1.0000   1.0000   1.0000   1.0000   1.0000   1.0000
     1.0000   1.0000   1.0000   1.0000   1.0000   1.0000   1.0000   1.0000
     1.0000   1.0000   1.0000   1.0000   1.0000   1.0000   1.0000   1.0000
     1.0000   1.0000   1.0000   1.0000   1.0000   1.0000   1.0000   1.0000
     1.0000   1.0000   1.0000   1.0000   1.0000   1.0000   1.0000   1.0000
     1.0000   1.0000   1.0000   1.0000   1.0000   1.0000   1.0000   1.0000
     1.0000   1.0000   1.0000   1.0000   1.0000   1.0000   1.0000   1.0000
     1.0000   1.0000   1.0000   1.0000   1.0000   1.0000   1.0000   1.0000
     1.0000   1.0000   1.0000   1.0000   1.0000   1.0000   1.0000   1.0000
     1.0000   1.0000   1.0000   1.0000   1.0000   1.0000   1.0000   1.0000
     1.0000   1.0000   1.0000   1.0000   1.0000   1.0000   1.0000   1.0000
     1.0000   1.0000   1.0000   1.0000   1.0000   1.0000   1.0000   1.0000
     1.0000   1.0000   1.0000   1.0000   1.0000   1.0000   1.0000   1.0000
     1.0000   1.0000   1.0000   1.0000   1.0000   1.0000   1.0000   1.0000
     1.0000   1.0000   1.0000   1.0000   0.0000   0.0000   0.0000   0.0000
     0.0000   0.0000   0.0000   0.0000   0.0000   0.0000   0.0000   0.0000
     0.0000   0.0000   0.0000   0.0000   0.0000   0.0000   0.0000   0.0000
     0.0000   0.0000   0.0000   0.0000   0.0000   0.0000   0.0000   0.0000
     0.0000   0.0000   0.0000   0.0000   0.0000   0.0000   0.0000   0.0000

          k = 0.0000 0.3849 0.0000 (319990 PWs)   bands (ev):

   -23.0919 -22.8973 -22.7077 -22.7038 -22.3348 -22.3310 -22.1526 -21.9771
   -21.9731 -21.6393 -21.4786 -21.4709 -21.3286 -21.3187 -21.0294 -21.0174
   -20.7988 -20.7682 -20.5763 -20.5598 -20.5055 -20.5021 -20.4121 -20.2765
   -20.2527 -20.2043 -20.1400 -20.0964 -20.0477 -19.8522 -19.8386 -14.4918
   -14.3684 -14.2469 -14.1027 -14.0056 -13.9165 -13.8805 -13.7620 -13.6833
   -13.6389 -13.6359 -13.6196 -13.4631 -13.2834 -13.1594 -12.8700 -12.6260
   -12.5667 -12.5416 -12.4974 -12.3109 -12.2046 -11.8862 -11.8152 -11.8147
   -11.6790 -11.4533 -11.3068 -11.1063 -11.0382 -11.0324 -10.8547 -10.7062
   -10.6766 -10.6661 -10.4540 -10.4459 -10.3707 -10.3202 -10.2025 -10.1896
   -10.1880 -10.1863 -10.1060 -10.0973 -10.0532  -9.9874  -9.9701  -9.9400
    -9.7142  -9.6860  -9.6825  -9.4901  -9.4392  -9.4079  -9.3650  -9.3129
    -9.1986  -9.1953  -9.1084  -9.0407  -8.9841  -8.8010  -8.7642  -8.7332
    -8.5565  -8.5096  -8.5004  -8.3712  -8.2976  -8.2855  -8.1606  -8.0906
    -7.8740  -7.8595  -7.7824  -7.5940  -7.5341  -7.4944  -7.4339  -7.2034
    -7.1812  -7.1078  -7.0883  -6.9642  -6.7319  -6.6993  -6.6340  -6.5396
    -6.4558  -6.3861  -6.0649  -6.0406  -1.2890  -1.2528  -1.2141  -1.2056
    -1.1392  -1.0812  -1.0664  -0.9472  -0.8490  -0.7344  -0.7286  -0.5157
    -0.4518  -0.4446  -0.4007  -0.3979  -0.3209  -0.2148  -0.1676  -0.1672
    -0.0898  -0.0022   0.0215   0.1398   0.1608   0.2330   0.2342   0.2468
     0.2743   0.3130   0.3132   0.4684   0.4821   0.4885   0.4887   0.5476

     occupation numbers 
     1.0000   1.0000   1.0000   1.0000   1.0000   1.0000   1.0000   1.0000
     1.0000   1.0000   1.0000   1.0000   1.0000   1.0000   1.0000   1.0000
     1.0000   1.0000   1.0000   1.0000   1.0000   1.0000   1.0000   1.0000
     1.0000   1.0000   1.0000   1.0000   1.0000   1.0000   1.0000   1.0000
     1.0000   1.0000   1.0000   1.0000   1.0000   1.0000   1.0000   1.0000
     1.0000   1.0000   1.0000   1.0000   1.0000   1.0000   1.0000   1.0000
     1.0000   1.0000   1.0000   1.0000   1.0000   1.0000   1.0000   1.0000
     1.0000   1.0000   1.0000   1.0000   1.0000   1.0000   1.0000   1.0000
     1.0000   1.0000   1.0000   1.0000   1.0000   1.0000   1.0000   1.0000
     1.0000   1.0000   1.0000   1.0000   1.0000   1.0000   1.0000   1.0000
     1.0000   1.0000   1.0000   1.0000   1.0000   1.0000   1.0000   1.0000
     1.0000   1.0000   1.0000   1.0000   1.0000   1.0000   1.0000   1.0000
     1.0000   1.0000   1.0000   1.0000   1.0000   1.0000   1.0000   1.0000
     1.0000   1.0000   1.0000   1.0000   1.0000   1.0000   1.0000   1.0000
     1.0000   1.0000   1.0000   1.0000   1.0000   1.0000   1.0000   1.0000
     1.0000   1.0000   1.0000   1.0000   0.0000   0.0000   0.0000   0.0000
     0.0000   0.0000   0.0000   0.0000   0.0000   0.0000   0.0000   0.0000
     0.0000   0.0000   0.0000   0.0000   0.0000   0.0000   0.0000   0.0000
     0.0000   0.0000   0.0000   0.0000   0.0000   0.0000   0.0000   0.0000
     0.0000   0.0000   0.0000   0.0000   0.0000   0.0000   0.0000   0.0000

          k = 0.3333 0.1925 0.0000 (319990 PWs)   bands (ev):

   -23.0919 -22.8973 -22.7076 -22.7038 -22.3348 -22.3310 -22.1526 -21.9771
   -21.9731 -21.6393 -21.4786 -21.4709 -21.3286 -21.3187 -21.0294 -21.0174
   -20.7988 -20.7682 -20.5763 -20.5598 -20.5056 -20.5021 -20.4121 -20.2764
   -20.2527 -20.2043 -20.1400 -20.0964 -20.0477 -19.8522 -19.8386 -14.4918
   -14.3684 -14.2469 -14.1027 -14.0056 -13.9165 -13.8805 -13.7620 -13.6833
   -13.6389 -13.6359 -13.6197 -13.4631 -13.2834 -13.1594 -12.8700 -12.6260
   -12.5667 -12.5416 -12.4974 -12.3109 -12.2046 -11.8862 -11.8152 -11.8147
   -11.6790 -11.4533 -11.3068 -11.1064 -11.0382 -11.0324 -10.8547 -10.7062
   -10.6766 -10.6661 -10.4540 -10.4459 -10.3707 -10.3202 -10.2025 -10.1896
   -10.1880 -10.1863 -10.1060 -10.0973 -10.0532  -9.9874  -9.9701  -9.9400
    -9.7142  -9.6860  -9.6825  -9.4901  -9.4392  -9.4079  -9.3650  -9.3129
    -9.1986  -9.1953  -9.1084  -9.0407  -8.9841  -8.8010  -8.7642  -8.7332
    -8.5565  -8.5096  -8.5004  -8.3712  -8.2976  -8.2855  -8.1606  -8.0906
    -7.8740  -7.8595  -7.7824  -7.5940  -7.5341  -7.4944  -7.4339  -7.2034
    -7.1812  -7.1078  -7.0883  -6.9642  -6.7319  -6.6993  -6.6340  -6.5396
    -6.4558  -6.3861  -6.0649  -6.0406  -1.2890  -1.2528  -1.2141  -1.2056
    -1.1392  -1.0812  -1.0664  -0.9472  -0.8490  -0.7344  -0.7286  -0.5157
    -0.4518  -0.4446  -0.4007  -0.3979  -0.3209  -0.2149  -0.1676  -0.1672
    -0.0898  -0.0022   0.0215   0.1398   0.1608   0.2330   0.2342   0.2468
     0.2743   0.3130   0.3132   0.4684   0.4821   0.4885   0.4887   0.5477

     occupation numbers 
     1.0000   1.0000   1.0000   1.0000   1.0000   1.0000   1.0000   1.0000
     1.0000   1.0000   1.0000   1.0000   1.0000   1.0000   1.0000   1.0000
     1.0000   1.0000   1.0000   1.0000   1.0000   1.0000   1.0000   1.0000
     1.0000   1.0000   1.0000   1.0000   1.0000   1.0000   1.0000   1.0000
     1.0000   1.0000   1.0000   1.0000   1.0000   1.0000   1.0000   1.0000
     1.0000   1.0000   1.0000   1.0000   1.0000   1.0000   1.0000   1.0000
     1.0000   1.0000   1.0000   1.0000   1.0000   1.0000   1.0000   1.0000
     1.0000   1.0000   1.0000   1.0000   1.0000   1.0000   1.0000   1.0000
     1.0000   1.0000   1.0000   1.0000   1.0000   1.0000   1.0000   1.0000
     1.0000   1.0000   1.0000   1.0000   1.0000   1.0000   1.0000   1.0000
     1.0000   1.0000   1.0000   1.0000   1.0000   1.0000   1.0000   1.0000
     1.0000   1.0000   1.0000   1.0000   1.0000   1.0000   1.0000   1.0000
     1.0000   1.0000   1.0000   1.0000   1.0000   1.0000   1.0000   1.0000
     1.0000   1.0000   1.0000   1.0000   1.0000   1.0000   1.0000   1.0000
     1.0000   1.0000   1.0000   1.0000   1.0000   1.0000   1.0000   1.0000
     1.0000   1.0000   1.0000   1.0000   0.0000   0.0000   0.0000   0.0000
     0.0000   0.0000   0.0000   0.0000   0.0000   0.0000   0.0000   0.0000
     0.0000   0.0000   0.0000   0.0000   0.0000   0.0000   0.0000   0.0000
     0.0000   0.0000   0.0000   0.0000   0.0000   0.0000   0.0000   0.0000
     0.0000   0.0000   0.0000   0.0000   0.0000   0.0000   0.0000   0.0000

          k = 0.3333 0.5774 0.0000 (319908 PWs)   bands (ev):

   -22.9635 -22.9612 -22.9608 -22.3942 -22.3938 -22.3935 -21.8632 -21.8630
   -21.8622 -21.8600 -21.8598 -21.8586 -20.9548 -20.9546 -20.9544 -20.9256
   -20.9253 -20.9251 -20.5608 -20.5597 -20.5590 -20.3954 -20.3953 -20.3942
   -20.3144 -20.3118 -20.3112 -19.9540 -19.9515 -19.9505 -19.7540 -14.3164
   -14.3158 -14.3157 -13.9821 -13.9812 -13.9796 -13.9645 -13.9630 -13.9626
   -13.4218 -13.3711 -13.3703 -13.3690 -13.2792 -13.2791 -13.2791 -12.9792
   -12.7178 -12.7177 -12.7177 -11.8648 -11.8641 -11.8624 -11.4405 -11.4404
   -11.4403 -11.1979 -11.1977 -11.1977 -11.0011 -10.9986 -10.9981 -10.8188
   -10.8144 -10.8139 -10.7727 -10.7727 -10.7722 -10.5333 -10.5312 -10.5308
    -9.9122  -9.9117  -9.9116  -9.9060  -9.9060  -9.9059  -9.7722  -9.7718
    -9.7718  -9.7671  -9.7666  -9.7665  -9.3919  -9.3914  -9.3914  -9.0424
    -9.0423  -9.0415  -9.0389  -9.0388  -9.0377  -9.0119  -9.0115  -9.0112
    -8.6500  -8.6497  -8.6494  -8.1151  -8.1135  -8.1133  -7.7635  -7.7632
    -7.7629  -7.7272  -7.7272  -7.7267  -7.6846  -7.6826  -7.6824  -7.1881
    -7.1868  -7.1863  -6.9206  -6.9204  -6.9197  -6.8041  -6.8031  -6.8013
    -6.2293  -6.2268  -6.2260  -5.8946  -1.3840  -1.2253  -1.2238  -1.2221
    -0.9814  -0.9810  -0.9809  -0.8403  -0.8393  -0.8389  -0.8238  -0.8203
    -0.8201  -0.2402  -0.2343  -0.2341  -0.1084  -0.1081  -0.1079   0.0515
     0.0515   0.0516   0.1260   0.1261   0.1262   0.1390   0.1392   0.1392
     0.1895   0.1896   0.1898   0.3589   0.3590   0.3591   0.4409   0.4411

     occupation numbers 
     1.0000   1.0000   1.0000   1.0000   1.0000   1.0000   1.0000   1.0000
     1.0000   1.0000   1.0000   1.0000   1.0000   1.0000   1.0000   1.0000
     1.0000   1.0000   1.0000   1.0000   1.0000   1.0000   1.0000   1.0000
     1.0000   1.0000   1.0000   1.0000   1.0000   1.0000   1.0000   1.0000
     1.0000   1.0000   1.0000   1.0000   1.0000   1.0000   1.0000   1.0000
     1.0000   1.0000   1.0000   1.0000   1.0000   1.0000   1.0000   1.0000
     1.0000   1.0000   1.0000   1.0000   1.0000   1.0000   1.0000   1.0000
     1.0000   1.0000   1.0000   1.0000   1.0000   1.0000   1.0000   1.0000
     1.0000   1.0000   1.0000   1.0000   1.0000   1.0000   1.0000   1.0000
     1.0000   1.0000   1.0000   1.0000   1.0000   1.0000   1.0000   1.0000
     1.0000   1.0000   1.0000   1.0000   1.0000   1.0000   1.0000   1.0000
     1.0000   1.0000   1.0000   1.0000   1.0000   1.0000   1.0000   1.0000
     1.0000   1.0000   1.0000   1.0000   1.0000   1.0000   1.0000   1.0000
     1.0000   1.0000   1.0000   1.0000   1.0000   1.0000   1.0000   1.0000
     1.0000   1.0000   1.0000   1.0000   1.0000   1.0000   1.0000   1.0000
     1.0000   1.0000   1.0000   1.0000   0.0000   0.0000   0.0000   0.0000
     0.0000   0.0000   0.0000   0.0000   0.0000   0.0000   0.0000   0.0000
     0.0000   0.0000   0.0000   0.0000   0.0000   0.0000   0.0000   0.0000
     0.0000   0.0000   0.0000   0.0000   0.0000   0.0000   0.0000   0.0000
     0.0000   0.0000   0.0000   0.0000   0.0000   0.0000   0.0000   0.0000

          k = 0.3333-0.1925 0.0000 (319990 PWs)   bands (ev):

   -23.0919 -22.8973 -22.7076 -22.7038 -22.3348 -22.3310 -22.1526 -21.9771
   -21.9731 -21.6393 -21.4786 -21.4709 -21.3286 -21.3187 -21.0294 -21.0174
   -20.7988 -20.7682 -20.5763 -20.5598 -20.5055 -20.5021 -20.4121 -20.2764
   -20.2527 -20.2043 -20.1400 -20.0964 -20.0477 -19.8522 -19.8386 -14.4918
   -14.3684 -14.2469 -14.1027 -14.0056 -13.9165 -13.8805 -13.7620 -13.6833
   -13.6389 -13.6359 -13.6197 -13.4631 -13.2834 -13.1594 -12.8700 -12.6260
   -12.5667 -12.5416 -12.4974 -12.3108 -12.2046 -11.8862 -11.8152 -11.8147
   -11.6790 -11.4533 -11.3068 -11.1063 -11.0383 -11.0323 -10.8547 -10.7062
   -10.6766 -10.6661 -10.4540 -10.4459 -10.3707 -10.3202 -10.2025 -10.1896
   -10.1880 -10.1863 -10.1060 -10.0973 -10.0532  -9.9874  -9.9701  -9.9400
    -9.7142  -9.6860  -9.6825  -9.4901  -9.4392  -9.4079  -9.3650  -9.3129
    -9.1986  -9.1953  -9.1084  -9.0407  -8.9841  -8.8010  -8.7642  -8.7332
    -8.5565  -8.5096  -8.5004  -8.3712  -8.2976  -8.2855  -8.1606  -8.0906
    -7.8740  -7.8595  -7.7824  -7.5940  -7.5341  -7.4944  -7.4339  -7.2034
    -7.1812  -7.1078  -7.0883  -6.9642  -6.7319  -6.6993  -6.6340  -6.5396
    -6.4558  -6.3861  -6.0649  -6.0406  -1.2890  -1.2528  -1.2141  -1.2056
    -1.1392  -1.0812  -1.0664  -0.9472  -0.8490  -0.7344  -0.7286  -0.5157
    -0.4518  -0.4446  -0.4007  -0.3979  -0.3209  -0.2149  -0.1676  -0.1672
    -0.0898  -0.0022   0.0215   0.1398   0.1608   0.2330   0.2342   0.2468
     0.2743   0.3130   0.3132   0.4684   0.4821   0.4885   0.4887   0.5476

     occupation numbers 
     1.0000   1.0000   1.0000   1.0000   1.0000   1.0000   1.0000   1.0000
     1.0000   1.0000   1.0000   1.0000   1.0000   1.0000   1.0000   1.0000
     1.0000   1.0000   1.0000   1.0000   1.0000   1.0000   1.0000   1.0000
     1.0000   1.0000   1.0000   1.0000   1.0000   1.0000   1.0000   1.0000
     1.0000   1.0000   1.0000   1.0000   1.0000   1.0000   1.0000   1.0000
     1.0000   1.0000   1.0000   1.0000   1.0000   1.0000   1.0000   1.0000
     1.0000   1.0000   1.0000   1.0000   1.0000   1.0000   1.0000   1.0000
     1.0000   1.0000   1.0000   1.0000   1.0000   1.0000   1.0000   1.0000
     1.0000   1.0000   1.0000   1.0000   1.0000   1.0000   1.0000   1.0000
     1.0000   1.0000   1.0000   1.0000   1.0000   1.0000   1.0000   1.0000
     1.0000   1.0000   1.0000   1.0000   1.0000   1.0000   1.0000   1.0000
     1.0000   1.0000   1.0000   1.0000   1.0000   1.0000   1.0000   1.0000
     1.0000   1.0000   1.0000   1.0000   1.0000   1.0000   1.0000   1.0000
     1.0000   1.0000   1.0000   1.0000   1.0000   1.0000   1.0000   1.0000
     1.0000   1.0000   1.0000   1.0000   1.0000   1.0000   1.0000   1.0000
     1.0000   1.0000   1.0000   1.0000   0.0000   0.0000   0.0000   0.0000
     0.0000   0.0000   0.0000   0.0000   0.0000   0.0000   0.0000   0.0000
     0.0000   0.0000   0.0000   0.0000   0.0000   0.0000   0.0000   0.0000
     0.0000   0.0000   0.0000   0.0000   0.0000   0.0000   0.0000   0.0000
     0.0000   0.0000   0.0000   0.0000   0.0000   0.0000   0.0000   0.0000

 ------ SPIN DOWN ----------


          k = 0.0000 0.0000 0.0000 (320189 PWs)   bands (ev):

   -23.1574 -22.5840 -22.5839 -22.5799 -22.5776 -22.5776 -22.5768 -21.5294
   -21.5288 -21.5288 -21.5246 -21.5246 -21.5223 -21.0865 -21.0861 -21.0861
   -21.0848 -21.0844 -21.0844 -20.2533 -20.2531 -20.2531 -20.2509 -20.2509
   -20.2506 -20.0789 -20.0789 -20.0768 -20.0759 -20.0750 -20.0750 -14.3218
   -14.3218 -14.3216 -14.3198 -14.3197 -14.3197 -13.5533 -13.5522 -13.5521
   -13.5521 -13.5505 -13.5505 -13.0011 -13.0011 -13.0007 -12.9977 -12.9975
   -12.9975 -12.0899 -12.0899 -12.0886 -12.0880 -12.0880 -12.0878 -11.8412
   -11.8406 -11.8406 -11.8396 -11.8396 -11.8393 -10.7934 -10.4143 -10.4143
   -10.4141 -10.4127 -10.4126 -10.4125 -10.0222 -10.0221 -10.0190 -10.0170
   -10.0170 -10.0160  -9.8593  -9.8577  -9.8577  -9.8545  -9.8545  -9.8541
    -9.7586  -9.7586  -9.7580  -9.7520  -9.7519  -9.7514  -9.4526  -9.4525
    -9.4506  -9.4500  -9.4499  -9.4463  -8.5800  -8.5794  -8.5794  -8.5759
    -8.5759  -8.5740  -8.2721  -8.2683  -8.2671  -8.2670  -8.2655  -8.2654
    -7.9533  -7.9532  -7.9532  -7.9522  -7.9515  -7.9515  -7.3060  -7.3060
    -6.7007  -6.7007  -6.7006  -6.6989  -6.6989  -6.6988  -6.4414  -6.4414
    -6.4395  -6.4389  -6.4377  -6.4377  -1.1828  -1.1060  -1.1060  -1.1060
    -1.1041  -1.1040  -1.1038  -0.9062  -0.9062  -0.9036  -0.9036  -0.9033
    -0.9028  -0.4276  -0.2767  -0.1979  -0.1874  -0.1873  -0.1873  -0.1861
    -0.1861  -0.1857   0.0300   0.1667   0.4602   0.4602   0.4607   0.4654
     0.4654   0.4661   0.5200   0.5202   0.5202   0.5206   0.5207   0.5207

     occupation numbers 
     1.0000   1.0000   1.0000   1.0000   1.0000   1.0000   1.0000   1.0000
     1.0000   1.0000   1.0000   1.0000   1.0000   1.0000   1.0000   1.0000
     1.0000   1.0000   1.0000   1.0000   1.0000   1.0000   1.0000   1.0000
     1.0000   1.0000   1.0000   1.0000   1.0000   1.0000   1.0000   1.0000
     1.0000   1.0000   1.0000   1.0000   1.0000   1.0000   1.0000   1.0000
     1.0000   1.0000   1.0000   1.0000   1.0000   1.0000   1.0000   1.0000
     1.0000   1.0000   1.0000   1.0000   1.0000   1.0000   1.0000   1.0000
     1.0000   1.0000   1.0000   1.0000   1.0000   1.0000   1.0000   1.0000
     1.0000   1.0000   1.0000   1.0000   1.0000   1.0000   1.0000   1.0000
     1.0000   1.0000   1.0000   1.0000   1.0000   1.0000   1.0000   1.0000
     1.0000   1.0000   1.0000   1.0000   1.0000   1.0000   1.0000   1.0000
     1.0000   1.0000   1.0000   1.0000   1.0000   1.0000   1.0000   1.0000
     1.0000   1.0000   1.0000   1.0000   1.0000   1.0000   1.0000   1.0000
     1.0000   1.0000   1.0000   1.0000   1.0000   1.0000   1.0000   1.0000
     1.0000   1.0000   1.0000   1.0000   1.0000   1.0000   1.0000   1.0000
     1.0000   1.0000   1.0000   1.0000   0.0000   0.0000   0.0000   0.0000
     0.0000   0.0000   0.0000   0.0000   0.0000   0.0000   0.0000   0.0000
     0.0000   0.0000   0.0000   0.0000   0.0000   0.0000   0.0000   0.0000
     0.0000   0.0000   0.0000   0.0000   0.0000   0.0000   0.0000   0.0000
     0.0000   0.0000   0.0000   0.0000   0.0000   0.0000   0.0000   0.0000

          k = 0.0000 0.3849 0.0000 (319990 PWs)   bands (ev):

   -23.0919 -22.8973 -22.7077 -22.7038 -22.3348 -22.3310 -22.1526 -21.9771
   -21.9731 -21.6393 -21.4786 -21.4709 -21.3286 -21.3187 -21.0294 -21.0174
   -20.7988 -20.7682 -20.5763 -20.5598 -20.5055 -20.5021 -20.4121 -20.2765
   -20.2527 -20.2043 -20.1400 -20.0964 -20.0477 -19.8522 -19.8386 -14.4918
   -14.3684 -14.2469 -14.1027 -14.0056 -13.9165 -13.8805 -13.7620 -13.6833
   -13.6389 -13.6359 -13.6196 -13.4631 -13.2834 -13.1594 -12.8700 -12.6260
   -12.5667 -12.5416 -12.4974 -12.3109 -12.2046 -11.8862 -11.8152 -11.8147
   -11.6790 -11.4533 -11.3068 -11.1063 -11.0382 -11.0324 -10.8547 -10.7062
   -10.6766 -10.6661 -10.4540 -10.4459 -10.3707 -10.3202 -10.2025 -10.1896
   -10.1880 -10.1863 -10.1060 -10.0973 -10.0532  -9.9874  -9.9701  -9.9400
    -9.7142  -9.6860  -9.6825  -9.4901  -9.4392  -9.4079  -9.3650  -9.3129
    -9.1986  -9.1953  -9.1084  -9.0407  -8.9841  -8.8010  -8.7642  -8.7332
    -8.5565  -8.5096  -8.5004  -8.3712  -8.2976  -8.2855  -8.1606  -8.0906
    -7.8740  -7.8595  -7.7824  -7.5940  -7.5341  -7.4944  -7.4339  -7.2034
    -7.1812  -7.1078  -7.0883  -6.9642  -6.7319  -6.6993  -6.6340  -6.5396
    -6.4558  -6.3861  -6.0649  -6.0406  -1.2890  -1.2528  -1.2141  -1.2056
    -1.1392  -1.0812  -1.0664  -0.9472  -0.8490  -0.7344  -0.7286  -0.5157
    -0.4518  -0.4446  -0.4007  -0.3979  -0.3209  -0.2148  -0.1676  -0.1672
    -0.0898  -0.0022   0.0215   0.1398   0.1608   0.2330   0.2342   0.2468
     0.2743   0.3130   0.3132   0.4684   0.4821   0.4885   0.4887   0.5476

     occupation numbers 
     1.0000   1.0000   1.0000   1.0000   1.0000   1.0000   1.0000   1.0000
     1.0000   1.0000   1.0000   1.0000   1.0000   1.0000   1.0000   1.0000
     1.0000   1.0000   1.0000   1.0000   1.0000   1.0000   1.0000   1.0000
     1.0000   1.0000   1.0000   1.0000   1.0000   1.0000   1.0000   1.0000
     1.0000   1.0000   1.0000   1.0000   1.0000   1.0000   1.0000   1.0000
     1.0000   1.0000   1.0000   1.0000   1.0000   1.0000   1.0000   1.0000
     1.0000   1.0000   1.0000   1.0000   1.0000   1.0000   1.0000   1.0000
     1.0000   1.0000   1.0000   1.0000   1.0000   1.0000   1.0000   1.0000
     1.0000   1.0000   1.0000   1.0000   1.0000   1.0000   1.0000   1.0000
     1.0000   1.0000   1.0000   1.0000   1.0000   1.0000   1.0000   1.0000
     1.0000   1.0000   1.0000   1.0000   1.0000   1.0000   1.0000   1.0000
     1.0000   1.0000   1.0000   1.0000   1.0000   1.0000   1.0000   1.0000
     1.0000   1.0000   1.0000   1.0000   1.0000   1.0000   1.0000   1.0000
     1.0000   1.0000   1.0000   1.0000   1.0000   1.0000   1.0000   1.0000
     1.0000   1.0000   1.0000   1.0000   1.0000   1.0000   1.0000   1.0000
     1.0000   1.0000   1.0000   1.0000   0.0000   0.0000   0.0000   0.0000
     0.0000   0.0000   0.0000   0.0000   0.0000   0.0000   0.0000   0.0000
     0.0000   0.0000   0.0000   0.0000   0.0000   0.0000   0.0000   0.0000
     0.0000   0.0000   0.0000   0.0000   0.0000   0.0000   0.0000   0.0000
     0.0000   0.0000   0.0000   0.0000   0.0000   0.0000   0.0000   0.0000

          k = 0.3333 0.1925 0.0000 (319990 PWs)   bands (ev):

   -23.0919 -22.8973 -22.7076 -22.7038 -22.3348 -22.3310 -22.1526 -21.9771
   -21.9731 -21.6393 -21.4786 -21.4709 -21.3286 -21.3187 -21.0294 -21.0174
   -20.7988 -20.7682 -20.5763 -20.5598 -20.5056 -20.5021 -20.4121 -20.2764
   -20.2527 -20.2043 -20.1400 -20.0964 -20.0477 -19.8522 -19.8386 -14.4918
   -14.3684 -14.2469 -14.1027 -14.0056 -13.9165 -13.8805 -13.7620 -13.6833
   -13.6389 -13.6359 -13.6197 -13.4631 -13.2834 -13.1594 -12.8700 -12.6260
   -12.5667 -12.5416 -12.4974 -12.3109 -12.2046 -11.8862 -11.8152 -11.8147
   -11.6790 -11.4533 -11.3068 -11.1064 -11.0382 -11.0324 -10.8547 -10.7062
   -10.6766 -10.6661 -10.4540 -10.4459 -10.3707 -10.3202 -10.2025 -10.1896
   -10.1880 -10.1863 -10.1060 -10.0973 -10.0532  -9.9874  -9.9701  -9.9400
    -9.7142  -9.6860  -9.6825  -9.4901  -9.4392  -9.4079  -9.3650  -9.3129
    -9.1986  -9.1953  -9.1084  -9.0407  -8.9841  -8.8010  -8.7642  -8.7332
    -8.5565  -8.5096  -8.5004  -8.3712  -8.2976  -8.2855  -8.1606  -8.0906
    -7.8740  -7.8595  -7.7824  -7.5940  -7.5341  -7.4944  -7.4339  -7.2034
    -7.1812  -7.1078  -7.0883  -6.9642  -6.7319  -6.6993  -6.6340  -6.5396
    -6.4558  -6.3861  -6.0649  -6.0406  -1.2890  -1.2528  -1.2141  -1.2056
    -1.1392  -1.0812  -1.0664  -0.9472  -0.8490  -0.7344  -0.7286  -0.5157
    -0.4518  -0.4446  -0.4007  -0.3979  -0.3209  -0.2149  -0.1676  -0.1672
    -0.0898  -0.0022   0.0215   0.1398   0.1608   0.2330   0.2342   0.2468
     0.2743   0.3130   0.3132   0.4684   0.4821   0.4885   0.4887   0.5477

     occupation numbers 
     1.0000   1.0000   1.0000   1.0000   1.0000   1.0000   1.0000   1.0000
     1.0000   1.0000   1.0000   1.0000   1.0000   1.0000   1.0000   1.0000
     1.0000   1.0000   1.0000   1.0000   1.0000   1.0000   1.0000   1.0000
     1.0000   1.0000   1.0000   1.0000   1.0000   1.0000   1.0000   1.0000
     1.0000   1.0000   1.0000   1.0000   1.0000   1.0000   1.0000   1.0000
     1.0000   1.0000   1.0000   1.0000   1.0000   1.0000   1.0000   1.0000
     1.0000   1.0000   1.0000   1.0000   1.0000   1.0000   1.0000   1.0000
     1.0000   1.0000   1.0000   1.0000   1.0000   1.0000   1.0000   1.0000
     1.0000   1.0000   1.0000   1.0000   1.0000   1.0000   1.0000   1.0000
     1.0000   1.0000   1.0000   1.0000   1.0000   1.0000   1.0000   1.0000
     1.0000   1.0000   1.0000   1.0000   1.0000   1.0000   1.0000   1.0000
     1.0000   1.0000   1.0000   1.0000   1.0000   1.0000   1.0000   1.0000
     1.0000   1.0000   1.0000   1.0000   1.0000   1.0000   1.0000   1.0000
     1.0000   1.0000   1.0000   1.0000   1.0000   1.0000   1.0000   1.0000
     1.0000   1.0000   1.0000   1.0000   1.0000   1.0000   1.0000   1.0000
     1.0000   1.0000   1.0000   1.0000   0.0000   0.0000   0.0000   0.0000
     0.0000   0.0000   0.0000   0.0000   0.0000   0.0000   0.0000   0.0000
     0.0000   0.0000   0.0000   0.0000   0.0000   0.0000   0.0000   0.0000
     0.0000   0.0000   0.0000   0.0000   0.0000   0.0000   0.0000   0.0000
     0.0000   0.0000   0.0000   0.0000   0.0000   0.0000   0.0000   0.0000

          k = 0.3333 0.5774 0.0000 (319908 PWs)   bands (ev):

   -22.9635 -22.9612 -22.9608 -22.3942 -22.3938 -22.3935 -21.8632 -21.8630
   -21.8622 -21.8600 -21.8598 -21.8586 -20.9548 -20.9546 -20.9544 -20.9256
   -20.9253 -20.9251 -20.5608 -20.5597 -20.5590 -20.3954 -20.3953 -20.3942
   -20.3144 -20.3118 -20.3112 -19.9540 -19.9515 -19.9505 -19.7540 -14.3164
   -14.3158 -14.3157 -13.9821 -13.9812 -13.9796 -13.9645 -13.9630 -13.9626
   -13.4218 -13.3711 -13.3703 -13.3690 -13.2792 -13.2791 -13.2791 -12.9792
   -12.7178 -12.7177 -12.7177 -11.8648 -11.8641 -11.8624 -11.4405 -11.4404
   -11.4403 -11.1979 -11.1977 -11.1977 -11.0011 -10.9986 -10.9981 -10.8188
   -10.8144 -10.8139 -10.7727 -10.7727 -10.7722 -10.5333 -10.5312 -10.5308
    -9.9122  -9.9117  -9.9116  -9.9060  -9.9060  -9.9059  -9.7722  -9.7718
    -9.7718  -9.7671  -9.7666  -9.7665  -9.3919  -9.3914  -9.3914  -9.0424
    -9.0423  -9.0415  -9.0389  -9.0388  -9.0377  -9.0119  -9.0115  -9.0112
    -8.6500  -8.6497  -8.6494  -8.1151  -8.1135  -8.1133  -7.7635  -7.7632
    -7.7629  -7.7272  -7.7272  -7.7267  -7.6846  -7.6826  -7.6824  -7.1881
    -7.1868  -7.1863  -6.9206  -6.9204  -6.9197  -6.8041  -6.8031  -6.8013
    -6.2293  -6.2268  -6.2260  -5.8946  -1.3840  -1.2253  -1.2238  -1.2221
    -0.9814  -0.9810  -0.9809  -0.8403  -0.8393  -0.8389  -0.8238  -0.8203
    -0.8201  -0.2402  -0.2343  -0.2341  -0.1084  -0.1081  -0.1079   0.0515
     0.0515   0.0516   0.1260   0.1261   0.1262   0.1390   0.1392   0.1392
     0.1895   0.1896   0.1898   0.3590   0.3590   0.3591   0.4409   0.4411

     occupation numbers 
     1.0000   1.0000   1.0000   1.0000   1.0000   1.0000   1.0000   1.0000
     1.0000   1.0000   1.0000   1.0000   1.0000   1.0000   1.0000   1.0000
     1.0000   1.0000   1.0000   1.0000   1.0000   1.0000   1.0000   1.0000
     1.0000   1.0000   1.0000   1.0000   1.0000   1.0000   1.0000   1.0000
     1.0000   1.0000   1.0000   1.0000   1.0000   1.0000   1.0000   1.0000
     1.0000   1.0000   1.0000   1.0000   1.0000   1.0000   1.0000   1.0000
     1.0000   1.0000   1.0000   1.0000   1.0000   1.0000   1.0000   1.0000
     1.0000   1.0000   1.0000   1.0000   1.0000   1.0000   1.0000   1.0000
     1.0000   1.0000   1.0000   1.0000   1.0000   1.0000   1.0000   1.0000
     1.0000   1.0000   1.0000   1.0000   1.0000   1.0000   1.0000   1.0000
     1.0000   1.0000   1.0000   1.0000   1.0000   1.0000   1.0000   1.0000
     1.0000   1.0000   1.0000   1.0000   1.0000   1.0000   1.0000   1.0000
     1.0000   1.0000   1.0000   1.0000   1.0000   1.0000   1.0000   1.0000
     1.0000   1.0000   1.0000   1.0000   1.0000   1.0000   1.0000   1.0000
     1.0000   1.0000   1.0000   1.0000   1.0000   1.0000   1.0000   1.0000
     1.0000   1.0000   1.0000   1.0000   0.0000   0.0000   0.0000   0.0000
     0.0000   0.0000   0.0000   0.0000   0.0000   0.0000   0.0000   0.0000
     0.0000   0.0000   0.0000   0.0000   0.0000   0.0000   0.0000   0.0000
     0.0000   0.0000   0.0000   0.0000   0.0000   0.0000   0.0000   0.0000
     0.0000   0.0000   0.0000   0.0000   0.0000   0.0000   0.0000   0.0000

          k = 0.3333-0.1925 0.0000 (319990 PWs)   bands (ev):

   -23.0919 -22.8973 -22.7076 -22.7038 -22.3348 -22.3310 -22.1526 -21.9771
   -21.9731 -21.6393 -21.4786 -21.4709 -21.3286 -21.3187 -21.0294 -21.0174
   -20.7988 -20.7682 -20.5763 -20.5598 -20.5055 -20.5021 -20.4121 -20.2764
   -20.2527 -20.2043 -20.1400 -20.0964 -20.0477 -19.8522 -19.8386 -14.4918
   -14.3684 -14.2469 -14.1027 -14.0056 -13.9165 -13.8805 -13.7620 -13.6833
   -13.6389 -13.6359 -13.6197 -13.4631 -13.2834 -13.1594 -12.8700 -12.6260
   -12.5667 -12.5416 -12.4974 -12.3108 -12.2046 -11.8862 -11.8152 -11.8147
   -11.6790 -11.4533 -11.3068 -11.1063 -11.0383 -11.0323 -10.8547 -10.7062
   -10.6766 -10.6661 -10.4540 -10.4459 -10.3707 -10.3202 -10.2025 -10.1896
   -10.1880 -10.1863 -10.1060 -10.0973 -10.0532  -9.9874  -9.9701  -9.9400
    -9.7142  -9.6860  -9.6825  -9.4901  -9.4392  -9.4079  -9.3650  -9.3129
    -9.1986  -9.1953  -9.1084  -9.0407  -8.9841  -8.8010  -8.7642  -8.7332
    -8.5565  -8.5096  -8.5004  -8.3712  -8.2976  -8.2855  -8.1606  -8.0906
    -7.8740  -7.8595  -7.7824  -7.5940  -7.5341  -7.4944  -7.4339  -7.2034
    -7.1812  -7.1078  -7.0883  -6.9642  -6.7319  -6.6993  -6.6340  -6.5396
    -6.4558  -6.3861  -6.0649  -6.0406  -1.2890  -1.2528  -1.2141  -1.2056
    -1.1392  -1.0812  -1.0664  -0.9472  -0.8490  -0.7344  -0.7286  -0.5157
    -0.4518  -0.4446  -0.4007  -0.3979  -0.3209  -0.2149  -0.1676  -0.1672
    -0.0898  -0.0022   0.0215   0.1398   0.1608   0.2330   0.2342   0.2468
     0.2743   0.3130   0.3132   0.4684   0.4821   0.4885   0.4887   0.5478

     occupation numbers 
     1.0000   1.0000   1.0000   1.0000   1.0000   1.0000   1.0000   1.0000
     1.0000   1.0000   1.0000   1.0000   1.0000   1.0000   1.0000   1.0000
     1.0000   1.0000   1.0000   1.0000   1.0000   1.0000   1.0000   1.0000
     1.0000   1.0000   1.0000   1.0000   1.0000   1.0000   1.0000   1.0000
     1.0000   1.0000   1.0000   1.0000   1.0000   1.0000   1.0000   1.0000
     1.0000   1.0000   1.0000   1.0000   1.0000   1.0000   1.0000   1.0000
     1.0000   1.0000   1.0000   1.0000   1.0000   1.0000   1.0000   1.0000
     1.0000   1.0000   1.0000   1.0000   1.0000   1.0000   1.0000   1.0000
     1.0000   1.0000   1.0000   1.0000   1.0000   1.0000   1.0000   1.0000
     1.0000   1.0000   1.0000   1.0000   1.0000   1.0000   1.0000   1.0000
     1.0000   1.0000   1.0000   1.0000   1.0000   1.0000   1.0000   1.0000
     1.0000   1.0000   1.0000   1.0000   1.0000   1.0000   1.0000   1.0000
     1.0000   1.0000   1.0000   1.0000   1.0000   1.0000   1.0000   1.0000
     1.0000   1.0000   1.0000   1.0000   1.0000   1.0000   1.0000   1.0000
     1.0000   1.0000   1.0000   1.0000   1.0000   1.0000   1.0000   1.0000
     1.0000   1.0000   1.0000   1.0000   0.0000   0.0000   0.0000   0.0000
     0.0000   0.0000   0.0000   0.0000   0.0000   0.0000   0.0000   0.0000
     0.0000   0.0000   0.0000   0.0000   0.0000   0.0000   0.0000   0.0000
     0.0000   0.0000   0.0000   0.0000   0.0000   0.0000   0.0000   0.0000
     0.0000   0.0000   0.0000   0.0000   0.0000   0.0000   0.0000   0.0000

     the Fermi energy is    -4.0180 ev

!    total energy              =   -1236.04085646 Ry
     total all-electron energy =     -4941.723367 Ry
     estimated scf accuracy    <          3.0E-09 Ry
     smearing contrib. (-TS)   =       0.00000000 Ry
     internal energy E=F+TS    =   -1236.04085646 Ry

     The total energy is F=E-TS. E is the sum of the following terms:
     one-electron contribution =  -24829.29993055 Ry
     hartree contribution      =   12452.53651131 Ry
     xc contribution           =    -270.43372834 Ry
     ewald contribution        =   11820.05264480 Ry
     DFT-D3 Dispersion         =      -0.33997622 Ry
     one-center paw contrib.   =    -408.55637746 Ry
      -> PAW hartree energy AE =       5.82108851 Ry
      -> PAW hartree energy PS =      -5.84389330 Ry
      -> PAW xc energy AE      =     -15.10314832 Ry
      -> PAW xc energy PS      =       4.70974158 Ry
      -> total E_H with PAW    =   12452.51370651 Ry
      -> total E_XC with PAW   =    -280.82713508 Ry

     total magnetization       =    -0.00 Bohr mag/cell
     absolute magnetization    =     0.00 Bohr mag/cell

     convergence has been achieved in   4 iterations

     negative rho (up, down):  6.299E-03 6.299E-03

     Forces acting on atoms (cartesian axes, Ry/au):

     atom    1 type  1   force =    -0.00044049   -0.00050230    0.00189232
     atom    2 type  1   force =    -0.00091961    0.00012548    0.00150793
     atom    3 type  1   force =    -0.00058494   -0.00036517    0.00131749
     atom    4 type  1   force =    -0.00011240    0.00018293    0.00194654
     atom    5 type  1   force =     0.00055639    0.00074096    0.00150891
     atom    6 type  1   force =     0.00017242    0.00003889    0.00274494
     atom    7 type  1   force =    -0.00010402    0.00014247    0.00274682
     atom    8 type  1   force =    -0.00069549   -0.00038592    0.00027361
     atom    9 type  1   force =    -0.00042221   -0.00030696    0.00076670
     atom   10 type  1   force =    -0.00013857    0.00025125    0.00216612
     atom   11 type  1   force =    -0.00023391    0.00065098    0.00188413
     atom   12 type  1   force =    -0.00007440   -0.00016083    0.00274685
     atom   13 type  1   force =     0.00066822   -0.00014856    0.00188499
     atom   14 type  1   force =     0.00049669   -0.00052398    0.00105550
     atom   15 type  1   force =     0.00027920   -0.00025636    0.00262215
     atom   16 type  1   force =     0.00020003    0.00069529    0.00104968
     atom   17 type  1   force =     0.00066505   -0.00042610    0.00027773
     atom   18 type  1   force =     0.00034595   -0.00087760    0.00151389
     atom   19 type  1   force =     0.00027308   -0.00001475    0.00216467
     atom   20 type  1   force =    -0.00036357   -0.00009302    0.00261370
     atom   21 type  1   force =     0.00010451    0.00038935    0.00263043
     atom   22 type  1   force =     0.00047936   -0.00021975    0.00077159
     atom   23 type  1   force =     0.00059865   -0.00034870    0.00132909
     atom   24 type  1   force =     0.00021493   -0.00001060    0.00194035
     atom   25 type  1   force =    -0.00004048    0.00052231    0.00076421
     atom   26 type  1   force =    -0.00068910   -0.00014824    0.00105172
     atom   27 type  1   force =    -0.00013905   -0.00022775    0.00216821
     atom   28 type  1   force =    -0.00010973   -0.00019456    0.00194744
     atom   29 type  1   force =    -0.00000559   -0.00000959    0.00260263
     atom   30 type  1   force =    -0.00001942    0.00068364    0.00131740
     atom   31 type  1   force =     0.00003940    0.00081219    0.00028172
     atom   32 type  2   force =    -0.00059665    0.00024255   -0.00094086
     atom   33 type  2   force =     0.00102578   -0.00054528   -0.00135800
     atom   34 type  2   force =     0.00074426   -0.00211039   -0.00291750
     atom   35 type  2   force =     0.00033982   -0.00078659   -0.00117286
     atom   36 type  2   force =     0.00144804    0.00169801   -0.00293126
     atom   37 type  2   force =    -0.00049578    0.00046824   -0.00311444
     atom   38 type  2   force =    -0.00091874   -0.00081919   -0.00070347
     atom   39 type  2   force =     0.00005653   -0.00035235    0.00046419
     atom   40 type  2   force =    -0.00084244    0.00009121   -0.00117511
     atom   41 type  2   force =     0.00050829    0.00069082   -0.00117791
     atom   42 type  2   force =     0.00157198   -0.00022951   -0.00359422
     atom   43 type  2   force =    -0.00018325   -0.00167172   -0.00288182
     atom   44 type  2   force =     0.00010982    0.00023582   -0.00074238
     atom   45 type  2   force =    -0.00058320    0.00147416   -0.00359835
     atom   46 type  2   force =    -0.00218659    0.00041348   -0.00293054
     atom   47 type  2   force =    -0.00032077    0.00014295    0.00047519
     atom   48 type  2   force =     0.00015169   -0.00022085   -0.00073467
     atom   49 type  2   force =    -0.00000633   -0.00001802   -0.00055902
     atom   50 type  2   force =     0.00152533    0.00066931   -0.00289086
     atom   51 type  2   force =    -0.00015879   -0.00065022   -0.00310849
     atom   52 type  2   force =    -0.00097538   -0.00058826   -0.00135820
     atom   53 type  2   force =    -0.00024346    0.00121504   -0.00072311
     atom   54 type  2   force =    -0.00135947    0.00097087   -0.00290270
     atom   55 type  2   force =    -0.00027544   -0.00004348   -0.00073423
     atom   56 type  2   force =     0.00116417   -0.00038782   -0.00071689
     atom   57 type  2   force =     0.00010143   -0.00061682   -0.00093573
     atom   58 type  2   force =     0.00050980    0.00042034   -0.00094636
     atom   59 type  2   force =     0.00064722    0.00018205   -0.00308516
     atom   60 type  2   force =    -0.00099279   -0.00126501   -0.00359417
     atom   61 type  2   force =     0.00027351    0.00021029    0.00046747
     atom   62 type  2   force =    -0.00003950    0.00116537   -0.00136799
     The non-local contrib.  to forces
     atom    1 type  1   force =    -0.00066485   -0.00018713   -0.00055788
     atom    2 type  1   force =    -0.00086315    0.00072453   -0.00056386
     atom    3 type  1   force =    -0.00038399   -0.00033460    0.00036032
     atom    4 type  1   force =    -0.00011310   -0.00054637   -0.00123436
     atom    5 type  1   force =     0.00105315    0.00039805   -0.00057605
     atom    6 type  1   force =     0.00056984    0.00033142   -0.00094190
     atom    7 type  1   force =    -0.00055448    0.00033911   -0.00093548
     atom    8 type  1   force =    -0.00068461   -0.00006503    0.00280419
     atom    9 type  1   force =    -0.00063973   -0.00060713    0.00128064
     atom   10 type  1   force =    -0.00038643    0.00011463   -0.00198436
     atom   11 type  1   force =     0.00015777    0.00068687   -0.00054698
     atom   12 type  1   force =    -0.00001841   -0.00064831   -0.00093525
     atom   13 type  1   force =     0.00050438   -0.00049337   -0.00055163
     atom   14 type  1   force =     0.00077984   -0.00013330    0.00106477
     atom   15 type  1   force =    -0.00019797    0.00003022   -0.00117898
     atom   16 type  1   force =    -0.00027972    0.00074152    0.00107349
     atom   17 type  1   force =     0.00038793   -0.00057215    0.00279820
     atom   18 type  1   force =    -0.00020124   -0.00112126   -0.00057523
     atom   19 type  1   force =     0.00027712    0.00027696   -0.00198023
     atom   20 type  1   force =     0.00012224    0.00015964   -0.00116735
     atom   21 type  1   force =     0.00008195   -0.00018217   -0.00118388
     atom   22 type  1   force =     0.00084856   -0.00026202    0.00128045
     atom   23 type  1   force =     0.00047375   -0.00018683    0.00034371
     atom   24 type  1   force =    -0.00041894    0.00036789   -0.00122237
     atom   25 type  1   force =    -0.00019978    0.00085914    0.00128820
     atom   26 type  1   force =    -0.00049846   -0.00060210    0.00107140
     atom   27 type  1   force =     0.00010530   -0.00038619   -0.00198593
     atom   28 type  1   force =     0.00053327    0.00016608   -0.00122848
     atom   29 type  1   force =    -0.00000102   -0.00000760   -0.00176818
     atom   30 type  1   force =    -0.00008808    0.00050182    0.00034716
     atom   31 type  1   force =     0.00030449    0.00063935    0.00278113
     atom   32 type  2   force =    -0.00065764    0.00015834   -0.00229222
     atom   33 type  2   force =     0.00123953   -0.00085868   -0.00588261
     atom   34 type  2   force =     0.00106148   -0.00215295   -0.01878632
     atom   35 type  2   force =     0.00002584   -0.00045026   -0.00343513
     atom   36 type  2   force =     0.00131996    0.00199783   -0.01891939
     atom   37 type  2   force =    -0.00057952    0.00061607   -0.02352587
     atom   38 type  2   force =    -0.00126188   -0.00099132   -0.00075757
     atom   39 type  2   force =     0.00054631   -0.00017458    0.00844952
     atom   40 type  2   force =    -0.00039794    0.00019254   -0.00347464
     atom   41 type  2   force =     0.00037255    0.00025086   -0.00348644
     atom   42 type  2   force =     0.00150992   -0.00045479   -0.02526100
     atom   43 type  2   force =    -0.00059030   -0.00150813   -0.01873960
     atom   44 type  2   force =    -0.00029550    0.00073310   -0.00076245
     atom   45 type  2   force =    -0.00034690    0.00153810   -0.02529987
     atom   46 type  2   force =    -0.00238134    0.00015073   -0.01889388
     atom   47 type  2   force =    -0.00041303   -0.00036106    0.00852020
     atom   48 type  2   force =     0.00078123   -0.00010433   -0.00071570
     atom   49 type  2   force =    -0.00000408   -0.00001638    0.00089564
     atom   50 type  2   force =     0.00160056    0.00023494   -0.01879625
     atom   51 type  2   force =    -0.00023797   -0.00079925   -0.02346310
     atom   52 type  2   force =    -0.00135639   -0.00061927   -0.00589441
     atom   53 type  2   force =    -0.00022990    0.00160234   -0.00091283
     atom   54 type  2   force =    -0.00102401    0.00124804   -0.01890731
     atom   55 type  2   force =    -0.00049306   -0.00065054   -0.00069254
     atom   56 type  2   force =     0.00149690   -0.00060403   -0.00085275
     atom   57 type  2   force =     0.00020700   -0.00063453   -0.00225512
     atom   58 type  2   force =     0.00046888    0.00050921   -0.00232992
     atom   59 type  2   force =     0.00080258    0.00017977   -0.02330230
     atom   60 type  2   force =    -0.00116904   -0.00109993   -0.02524357
     atom   61 type  2   force =    -0.00011768    0.00054555    0.00846817
     atom   62 type  2   force =     0.00012636    0.00150629   -0.00598054
     The ionic contribution  to forces
     atom    1 type  1   force =    -0.00678084   -0.00285412   -0.05156764
     atom    2 type  1   force =    -0.00685541    0.00841228   -0.06107968
     atom    3 type  1   force =    -0.00338594   -0.00187650   -0.00646259
     atom    4 type  1   force =     0.00020617   -0.00596771   -0.11985221
     atom    5 type  1   force =     0.01058367    0.00173991   -0.06235345
     atom    6 type  1   force =     0.00546690    0.00119232   -0.08596583
     atom    7 type  1   force =    -0.00372306    0.00424343   -0.08524531
     atom    8 type  1   force =    -0.00215218    0.00155191    0.17449801
     atom    9 type  1   force =    -0.00302271   -0.00711991    0.06717845
     atom   10 type  1   force =    -0.00185395    0.00144550   -0.14781664
     atom   11 type  1   force =     0.00080563    0.00735189   -0.05079283
     atom   12 type  1   force =    -0.00179364   -0.00532623   -0.08529431
     atom   13 type  1   force =     0.00596555   -0.00445313   -0.05076711
     atom   14 type  1   force =     0.01041467   -0.00234363    0.04658603
     atom   15 type  1   force =    -0.00010609    0.00099121   -0.10742858
     atom   16 type  1   force =    -0.00311277    0.01015657    0.04687747
     atom   17 type  1   force =    -0.00027483   -0.00273055    0.17381916
     atom   18 type  1   force =    -0.00383933   -0.01015327   -0.06185664
     atom   19 type  1   force =     0.00215326    0.00088430   -0.14724045
     atom   20 type  1   force =     0.00094108   -0.00031078   -0.10665108
     atom   21 type  1   force =    -0.00067111   -0.00055751   -0.10768992
     atom   22 type  1   force =     0.00771711    0.00088220    0.06694761
     atom   23 type  1   force =     0.00324582   -0.00209198   -0.00765995
     atom   24 type  1   force =    -0.00527529    0.00270746   -0.11916962
     atom   25 type  1   force =    -0.00460738    0.00617607    0.06749544
     atom   26 type  1   force =    -0.00719714   -0.00772608    0.04659446
     atom   27 type  1   force =    -0.00029466   -0.00226519   -0.14788005
     atom   28 type  1   force =     0.00499316    0.00313755   -0.11943125
     atom   29 type  1   force =    -0.00005704   -0.00007188   -0.16690004
     atom   30 type  1   force =     0.00006902    0.00377898   -0.00764246
     atom   31 type  1   force =     0.00247676    0.00117581    0.17251883
     atom   32 type  2   force =    -0.00664990    0.00217058   -0.15280633
     atom   33 type  2   force =     0.00880041    0.00231952   -0.05090724
     atom   34 type  2   force =     0.00814113   -0.01423406    0.22934020
     atom   35 type  2   force =     0.00633868   -0.00886906   -0.10851787
     atom   36 type  2   force =     0.00825816    0.01418904    0.23316669
     atom   37 type  2   force =    -0.00732962    0.00027586    0.41543945
     atom   38 type  2   force =    -0.00401650   -0.00651616   -0.12416971
     atom   39 type  2   force =    -0.00172244   -0.00148931   -0.27690250
     atom   40 type  2   force =    -0.01082697   -0.00103327   -0.10756365
     atom   41 type  2   force =     0.00458118    0.00995888   -0.10705971
     atom   42 type  2   force =     0.01519698    0.00092173    0.39460186
     atom   43 type  2   force =     0.00504044   -0.01730129    0.22091373
     atom   44 type  2   force =     0.00496724    0.00089852   -0.13122162
     atom   45 type  2   force =    -0.00842740    0.01260377    0.39492784
     atom   46 type  2   force =    -0.01633626    0.00008170    0.23198540
     atom   47 type  2   force =    -0.00034070    0.00222821   -0.27724114
     atom   48 type  2   force =    -0.00167641   -0.00479720   -0.13122743
     atom   49 type  2   force =    -0.00000401   -0.00003686   -0.21293105
     atom   50 type  2   force =     0.01239313    0.01296147    0.22146708
     atom   51 type  2   force =     0.00336246   -0.00648557    0.41344073
     atom   52 type  2   force =    -0.00233179   -0.00872227   -0.05015263
     atom   53 type  2   force =    -0.00355321    0.00677210   -0.12129661
     atom   54 type  2   force =    -0.01746192    0.00422333    0.22366231
     atom   55 type  2   force =    -0.00334455    0.00383134   -0.13247966
     atom   56 type  2   force =     0.00754777   -0.00022778   -0.12294863
     atom   57 type  2   force =     0.00140778   -0.00670856   -0.15369744
     atom   58 type  2   force =     0.00515746    0.00476166   -0.15254262
     atom   59 type  2   force =     0.00396539    0.00613366    0.41109897
     atom   60 type  2   force =    -0.00672755   -0.01363403    0.39287694
     atom   61 type  2   force =     0.00206323   -0.00077151   -0.27693305
     atom   62 type  2   force =    -0.00650764    0.00651665   -0.04809013
     The local contribution  to forces
     atom    1 type  1   force =     0.00702372    0.00259691    0.05395190
     atom    2 type  1   force =     0.00675341   -0.00886158    0.06309390
     atom    3 type  1   force =     0.00316723    0.00186825    0.00741458
     atom    4 type  1   force =    -0.00018045    0.00661679    0.12292403
     atom    5 type  1   force =    -0.01092625   -0.00143001    0.06438009
     atom    6 type  1   force =    -0.00575814   -0.00145526    0.08953145
     atom    7 type  1   force =     0.00410570   -0.00435918    0.08880666
     atom    8 type  1   force =     0.00204142   -0.00179796   -0.17685743
     atom    9 type  1   force =     0.00317693    0.00739112   -0.06762530
     atom   10 type  1   force =     0.00208850   -0.00137195    0.15182563
     atom   11 type  1   force =    -0.00115690   -0.00742885    0.05315875
     atom   12 type  1   force =     0.00170669    0.00571463    0.08885548
     atom   13 type  1   force =    -0.00585419    0.00478814    0.05313838
     atom   14 type  1   force =    -0.01069564    0.00200033   -0.04655816
     atom   15 type  1   force =     0.00054241   -0.00128893    0.11109834
     atom   16 type  1   force =     0.00354936   -0.01022718   -0.04686363
     atom   17 type  1   force =     0.00053689    0.00274903   -0.17616908
     atom   18 type  1   force =     0.00427874    0.01027983    0.06388738
     atom   19 type  1   force =    -0.00220506   -0.00112813    0.15124432
     atom   20 type  1   force =    -0.00141493    0.00009738    0.11030173
     atom   21 type  1   force =     0.00071940    0.00109743    0.11137244
     atom   22 type  1   force =    -0.00803319   -0.00088723   -0.06738960
     atom   23 type  1   force =    -0.00313759    0.00189810    0.00863890
     atom   24 type  1   force =     0.00582558   -0.00306388    0.12222385
     atom   25 type  1   force =     0.00477228   -0.00644252   -0.06795180
     atom   26 type  1   force =     0.00704746    0.00815678   -0.04657652
     atom   27 type  1   force =     0.00011191    0.00243961    0.15189268
     atom   28 type  1   force =    -0.00558019   -0.00344334    0.12249829
     atom   29 type  1   force =     0.00005068    0.00006864    0.17110891
     atom   30 type  1   force =     0.00002943   -0.00359134    0.00860677
     atom   31 type  1   force =    -0.00262494   -0.00095149   -0.17484878
     atom   32 type  2   force =     0.00669807   -0.00207558    0.15413436
     atom   33 type  2   force =    -0.00898055   -0.00201824    0.05537000
     atom   34 type  2   force =    -0.00844425    0.01421620   -0.21368106
     atom   35 type  2   force =    -0.00601912    0.00851347    0.11073870
     atom   36 type  2   force =    -0.00808840   -0.01444604   -0.21738950
     atom   37 type  2   force =     0.00740209   -0.00041267   -0.39527299
     atom   38 type  2   force =     0.00434142    0.00666781    0.12422458
     atom   39 type  2   force =     0.00124630    0.00130325    0.26902723
     atom   40 type  2   force =     0.01036430    0.00093425    0.10982194
     atom   41 type  2   force =    -0.00443054   -0.00950240    0.10932660
     atom   42 type  2   force =    -0.01509396   -0.00070807   -0.37321309
     atom   43 type  2   force =    -0.00464219    0.01709529   -0.20526565
     atom   44 type  2   force =    -0.00456007   -0.00138798    0.13123889
     atom   45 type  2   force =     0.00818128   -0.01262653   -0.37350491
     atom   46 type  2   force =     0.01647585    0.00019339   -0.21623301
     atom   47 type  2   force =     0.00042768   -0.00172625    0.26930760
     atom   48 type  2   force =     0.00105555    0.00467547    0.13120653
     atom   49 type  2   force =    -0.00000111    0.00003458    0.21148479
     atom   50 type  2   force =    -0.01243353   -0.01251116   -0.20577218
     atom   51 type  2   force =    -0.00329160    0.00661790   -0.39333039
     atom   52 type  2   force =     0.00268473    0.00873494    0.05462715
     atom   53 type  2   force =     0.00353227   -0.00712988    0.12148521
     atom   54 type  2   force =     0.01709708   -0.00447191   -0.20786886
     atom   55 type  2   force =     0.00355266   -0.00322447    0.13243601
     atom   56 type  2   force =    -0.00785699    0.00043226    0.12308435
     atom   57 type  2   force =    -0.00151378    0.00671025    0.15499411
     atom   58 type  2   force =    -0.00510550   -0.00483618    0.15390222
     atom   59 type  2   force =    -0.00411159   -0.00612921   -0.39112407
     atom   60 type  2   force =     0.00687448    0.01343751   -0.37150533
     atom   61 type  2   force =    -0.00166490    0.00044725    0.26904295
     atom   62 type  2   force =     0.00633592   -0.00682800    0.05264001
     The core correction contribution to forces
     atom    1 type  1   force =    -0.00002012   -0.00005541    0.00008463
     atom    2 type  1   force =     0.00004446   -0.00014934    0.00007486
     atom    3 type  1   force =     0.00001752   -0.00002484    0.00003024
     atom    4 type  1   force =    -0.00002226    0.00008069    0.00011999
     atom    5 type  1   force =    -0.00015396    0.00003264    0.00007546
     atom    6 type  1   force =    -0.00010651   -0.00002683    0.00013669
     atom    7 type  1   force =     0.00006906   -0.00008169    0.00013646
     atom    8 type  1   force =     0.00009882   -0.00007786   -0.00012476
     atom    9 type  1   force =     0.00006305    0.00002773   -0.00003385
     atom   10 type  1   force =     0.00001625    0.00006351    0.00014819
     atom   11 type  1   force =    -0.00003830    0.00004178    0.00008394
     atom   12 type  1   force =     0.00003122    0.00009876    0.00013649
     atom   13 type  1   force =     0.00005507    0.00000869    0.00008412
     atom   14 type  1   force =    -0.00000101   -0.00004880   -0.00000650
     atom   15 type  1   force =     0.00004042    0.00000990    0.00014417
     atom   16 type  1   force =     0.00004294    0.00002635   -0.00000702
     atom   17 type  1   force =     0.00001744    0.00012758   -0.00012422
     atom   18 type  1   force =     0.00010829    0.00011376    0.00007559
     atom   19 type  1   force =     0.00004802   -0.00004833    0.00014790
     atom   20 type  1   force =    -0.00001136   -0.00003874    0.00014338
     atom   21 type  1   force =    -0.00002597    0.00003332    0.00014456
     atom   22 type  1   force =    -0.00005392    0.00004692   -0.00003359
     atom   23 type  1   force =     0.00001640    0.00003243    0.00003142
     atom   24 type  1   force =     0.00008261   -0.00002219    0.00011945
     atom   25 type  1   force =    -0.00000748   -0.00007088   -0.00003423
     atom   26 type  1   force =    -0.00004051    0.00002435   -0.00000686
     atom   27 type  1   force =    -0.00006291   -0.00001407    0.00014832
     atom   28 type  1   force =    -0.00005807   -0.00005476    0.00011987
     atom   29 type  1   force =     0.00000123    0.00000191    0.00016812
     atom   30 type  1   force =    -0.00003226   -0.00000410    0.00003083
     atom   31 type  1   force =    -0.00011849   -0.00005210   -0.00012327
     atom   32 type  2   force =     0.00001760   -0.00000954    0.00005267
     atom   33 type  2   force =    -0.00002904    0.00001332    0.00009669
     atom   34 type  2   force =    -0.00001887    0.00005818    0.00026037
     atom   35 type  2   force =    -0.00000943    0.00002153    0.00007218
     atom   36 type  2   force =    -0.00004070   -0.00004544    0.00026200
     atom   37 type  2   force =     0.00001256   -0.00001607    0.00030848
     atom   38 type  2   force =     0.00002446    0.00001890    0.00002993
     atom   39 type  2   force =    -0.00000342    0.00000839   -0.00008812
     atom   40 type  2   force =     0.00002311   -0.00000247    0.00007260
     atom   41 type  2   force =    -0.00001382   -0.00001902    0.00007276
     atom   42 type  2   force =    -0.00004074    0.00000743    0.00033835
     atom   43 type  2   force =     0.00000542    0.00004374    0.00025992
     atom   44 type  2   force =    -0.00000480   -0.00000968    0.00003300
     atom   45 type  2   force =     0.00001368   -0.00003900    0.00033886
     atom   46 type  2   force =     0.00005942   -0.00001282    0.00026174
     atom   47 type  2   force =     0.00000857   -0.00000177   -0.00008909
     atom   48 type  2   force =    -0.00000598    0.00000896    0.00003232
     atom   49 type  2   force =     0.00000014    0.00000041    0.00001657
     atom   50 type  2   force =    -0.00004036   -0.00001698    0.00026068
     atom   51 type  2   force =     0.00000768    0.00001868    0.00030779
     atom   52 type  2   force =     0.00002565    0.00001788    0.00009682
     atom   53 type  2   force =     0.00000400   -0.00003081    0.00003196
     atom   54 type  2   force =     0.00003538   -0.00002612    0.00026211
     atom   55 type  2   force =     0.00001112    0.00000122    0.00003215
     atom   56 type  2   force =    -0.00002845    0.00001181    0.00003129
     atom   57 type  2   force =    -0.00000074    0.00001958    0.00005219
     atom   58 type  2   force =    -0.00001716   -0.00001095    0.00005311
     atom   59 type  2   force =    -0.00001993   -0.00000246    0.00030570
     atom   60 type  2   force =     0.00002719    0.00003210    0.00033820
     atom   61 type  2   force =    -0.00000538   -0.00000678   -0.00008832
     atom   62 type  2   force =     0.00000311   -0.00003192    0.00009783
     The Hubbard contrib.    to forces
     atom    1 type  1   force =     0.00000000    0.00000000    0.00000000
     atom    2 type  1   force =     0.00000000    0.00000000    0.00000000
     atom    3 type  1   force =     0.00000000    0.00000000    0.00000000
     atom    4 type  1   force =     0.00000000    0.00000000    0.00000000
     atom    5 type  1   force =     0.00000000    0.00000000    0.00000000
     atom    6 type  1   force =     0.00000000    0.00000000    0.00000000
     atom    7 type  1   force =     0.00000000    0.00000000    0.00000000
     atom    8 type  1   force =     0.00000000    0.00000000    0.00000000
     atom    9 type  1   force =     0.00000000    0.00000000    0.00000000
     atom   10 type  1   force =     0.00000000    0.00000000    0.00000000
     atom   11 type  1   force =     0.00000000    0.00000000    0.00000000
     atom   12 type  1   force =     0.00000000    0.00000000    0.00000000
     atom   13 type  1   force =     0.00000000    0.00000000    0.00000000
     atom   14 type  1   force =     0.00000000    0.00000000    0.00000000
     atom   15 type  1   force =     0.00000000    0.00000000    0.00000000
     atom   16 type  1   force =     0.00000000    0.00000000    0.00000000
     atom   17 type  1   force =     0.00000000    0.00000000    0.00000000
     atom   18 type  1   force =     0.00000000    0.00000000    0.00000000
     atom   19 type  1   force =     0.00000000    0.00000000    0.00000000
     atom   20 type  1   force =     0.00000000    0.00000000    0.00000000
     atom   21 type  1   force =     0.00000000    0.00000000    0.00000000
     atom   22 type  1   force =     0.00000000    0.00000000    0.00000000
     atom   23 type  1   force =     0.00000000    0.00000000    0.00000000
     atom   24 type  1   force =     0.00000000    0.00000000    0.00000000
     atom   25 type  1   force =     0.00000000    0.00000000    0.00000000
     atom   26 type  1   force =     0.00000000    0.00000000    0.00000000
     atom   27 type  1   force =     0.00000000    0.00000000    0.00000000
     atom   28 type  1   force =     0.00000000    0.00000000    0.00000000
     atom   29 type  1   force =     0.00000000    0.00000000    0.00000000
     atom   30 type  1   force =     0.00000000    0.00000000    0.00000000
     atom   31 type  1   force =     0.00000000    0.00000000    0.00000000
     atom   32 type  2   force =     0.00000000    0.00000000    0.00000000
     atom   33 type  2   force =     0.00000000    0.00000000    0.00000000
     atom   34 type  2   force =     0.00000000    0.00000000    0.00000000
     atom   35 type  2   force =     0.00000000    0.00000000    0.00000000
     atom   36 type  2   force =     0.00000000    0.00000000    0.00000000
     atom   37 type  2   force =     0.00000000    0.00000000    0.00000000
     atom   38 type  2   force =     0.00000000    0.00000000    0.00000000
     atom   39 type  2   force =     0.00000000    0.00000000    0.00000000
     atom   40 type  2   force =     0.00000000    0.00000000    0.00000000
     atom   41 type  2   force =     0.00000000    0.00000000    0.00000000
     atom   42 type  2   force =     0.00000000    0.00000000    0.00000000
     atom   43 type  2   force =     0.00000000    0.00000000    0.00000000
     atom   44 type  2   force =     0.00000000    0.00000000    0.00000000
     atom   45 type  2   force =     0.00000000    0.00000000    0.00000000
     atom   46 type  2   force =     0.00000000    0.00000000    0.00000000
     atom   47 type  2   force =     0.00000000    0.00000000    0.00000000
     atom   48 type  2   force =     0.00000000    0.00000000    0.00000000
     atom   49 type  2   force =     0.00000000    0.00000000    0.00000000
     atom   50 type  2   force =     0.00000000    0.00000000    0.00000000
     atom   51 type  2   force =     0.00000000    0.00000000    0.00000000
     atom   52 type  2   force =     0.00000000    0.00000000    0.00000000
     atom   53 type  2   force =     0.00000000    0.00000000    0.00000000
     atom   54 type  2   force =     0.00000000    0.00000000    0.00000000
     atom   55 type  2   force =     0.00000000    0.00000000    0.00000000
     atom   56 type  2   force =     0.00000000    0.00000000    0.00000000
     atom   57 type  2   force =     0.00000000    0.00000000    0.00000000
     atom   58 type  2   force =     0.00000000    0.00000000    0.00000000
     atom   59 type  2   force =     0.00000000    0.00000000    0.00000000
     atom   60 type  2   force =     0.00000000    0.00000000    0.00000000
     atom   61 type  2   force =     0.00000000    0.00000000    0.00000000
     atom   62 type  2   force =     0.00000000    0.00000000    0.00000000
     The SCF correction term to forces
     atom    1 type  1   force =     0.00000140   -0.00000270   -0.00001740
     atom    2 type  1   force =     0.00000078   -0.00000004   -0.00001740
     atom    3 type  1   force =    -0.00000017    0.00000260   -0.00001744
     atom    4 type  1   force =    -0.00000280   -0.00000063   -0.00001741
     atom    5 type  1   force =     0.00000026    0.00000043   -0.00001740
     atom    6 type  1   force =     0.00000048   -0.00000280   -0.00001741
     atom    7 type  1   force =    -0.00000127    0.00000095   -0.00001735
     atom    8 type  1   force =     0.00000114    0.00000320   -0.00001739
     atom    9 type  1   force =     0.00000020    0.00000065   -0.00001739
     atom   10 type  1   force =    -0.00000286   -0.00000037   -0.00001736
     atom   11 type  1   force =    -0.00000214   -0.00000044   -0.00001736
     atom   12 type  1   force =    -0.00000038    0.00000020   -0.00001741
     atom   13 type  1   force =    -0.00000235    0.00000099   -0.00001741
     atom   14 type  1   force =    -0.00000076    0.00000107   -0.00001736
     atom   15 type  1   force =     0.00000054    0.00000118   -0.00001736
     atom   16 type  1   force =     0.00000034   -0.00000146   -0.00001730
     atom   17 type  1   force =    -0.00000258   -0.00000004   -0.00001737
     atom   18 type  1   force =    -0.00000068    0.00000290   -0.00001740
     atom   19 type  1   force =    -0.00000023    0.00000032   -0.00001748
     atom   20 type  1   force =    -0.00000071   -0.00000057   -0.00001745
     atom   21 type  1   force =     0.00000026   -0.00000160   -0.00001735
     atom   22 type  1   force =     0.00000133    0.00000062   -0.00001746
     atom   23 type  1   force =     0.00000041   -0.00000082   -0.00001749
     atom   24 type  1   force =     0.00000087    0.00000023   -0.00001739
     atom   25 type  1   force =     0.00000141    0.00000083   -0.00001751
     atom   26 type  1   force =    -0.00000094   -0.00000135   -0.00001747
     atom   27 type  1   force =     0.00000120   -0.00000187   -0.00001749
     atom   28 type  1   force =     0.00000225   -0.00000004   -0.00001745
     atom   29 type  1   force =     0.00000056   -0.00000066   -0.00001741
     atom   30 type  1   force =     0.00000275   -0.00000139   -0.00001742
     atom   31 type  1   force =     0.00000170    0.00000046   -0.00001741
     atom   32 type  2   force =    -0.00000488   -0.00000125   -0.00003264
     atom   33 type  2   force =    -0.00000453   -0.00000113   -0.00003253
     atom   34 type  2   force =     0.00000478    0.00000210   -0.00003250
     atom   35 type  2   force =     0.00000395   -0.00000236   -0.00003237
     atom   36 type  2   force =    -0.00000087    0.00000270   -0.00003264
     atom   37 type  2   force =    -0.00000127    0.00000497   -0.00003281
     atom   38 type  2   force =    -0.00000610    0.00000143   -0.00003257
     atom   39 type  2   force =    -0.00001033   -0.00000012   -0.00003251
     atom   40 type  2   force =    -0.00000505    0.00000014   -0.00003293
     atom   41 type  2   force =    -0.00000104    0.00000263   -0.00003266
     atom   42 type  2   force =    -0.00000001    0.00000425   -0.00003233
     atom   43 type  2   force =     0.00000357   -0.00000155   -0.00003247
     atom   44 type  2   force =     0.00000307    0.00000188   -0.00003265
     atom   45 type  2   force =    -0.00000402   -0.00000205   -0.00003221
     atom   46 type  2   force =    -0.00000437    0.00000054   -0.00003245
     atom   47 type  2   force =    -0.00000325    0.00000393   -0.00003298
     atom   48 type  2   force =    -0.00000274   -0.00000386   -0.00003284
     atom   49 type  2   force =     0.00000273    0.00000023   -0.00003233
     atom   50 type  2   force =     0.00000562    0.00000131   -0.00003240
     atom   51 type  2   force =     0.00000070   -0.00000193   -0.00003295
     atom   52 type  2   force =     0.00000245    0.00000039   -0.00003276
     atom   53 type  2   force =     0.00000319    0.00000123   -0.00003256
     atom   54 type  2   force =    -0.00000628   -0.00000252   -0.00003304
     atom   55 type  2   force =    -0.00000169   -0.00000093   -0.00003270
     atom   56 type  2   force =     0.00000497    0.00000011   -0.00003297
     atom   57 type  2   force =     0.00000123   -0.00000365   -0.00003283
     atom   58 type  2   force =     0.00000616   -0.00000330   -0.00003242
     atom   59 type  2   force =     0.00001071    0.00000032   -0.00003299
     atom   60 type  2   force =     0.00000211   -0.00000086   -0.00003249
     atom   61 type  2   force =    -0.00000169   -0.00000430   -0.00003286
     atom   62 type  2   force =     0.00000267    0.00000235   -0.00003268

     DFT-D3 dispersion contribution to forces:
     atom    1 type  1   force =     0.00000022    0.00000014    0.00000424
     atom    2 type  1   force =     0.00000029   -0.00000038    0.00000564
     atom    3 type  1   force =     0.00000042   -0.00000008   -0.00000208
     atom    4 type  1   force =     0.00000003    0.00000016    0.00001204
     atom    5 type  1   force =    -0.00000047   -0.00000007    0.00000578
     atom    6 type  1   force =    -0.00000015    0.00000004    0.00000747
     atom    7 type  1   force =     0.00000004   -0.00000016    0.00000738
     atom    8 type  1   force =    -0.00000008   -0.00000017   -0.00002348
     atom    9 type  1   force =     0.00000005    0.00000058   -0.00001031
     atom   10 type  1   force =    -0.00000009   -0.00000009    0.00001620
     atom   11 type  1   force =     0.00000002   -0.00000027    0.00000414
     atom   12 type  1   force =     0.00000012    0.00000011    0.00000739
     atom   13 type  1   force =    -0.00000024    0.00000012    0.00000416
     atom   14 type  1   force =    -0.00000040    0.00000035   -0.00000775
     atom   15 type  1   force =    -0.00000010    0.00000007    0.00001010
     atom   16 type  1   force =    -0.00000010   -0.00000052   -0.00000779
     atom   17 type  1   force =     0.00000019    0.00000002   -0.00002341
     atom   18 type  1   force =     0.00000018    0.00000045    0.00000573
     atom   19 type  1   force =    -0.00000003    0.00000013    0.00001614
     atom   20 type  1   force =     0.00000010    0.00000005    0.00001001
     atom   21 type  1   force =    -0.00000001   -0.00000012    0.00001012
     atom   22 type  1   force =    -0.00000053   -0.00000024   -0.00001029
     atom   23 type  1   force =    -0.00000014    0.00000041   -0.00000195
     atom   24 type  1   force =     0.00000012   -0.00000010    0.00001196
     atom   25 type  1   force =     0.00000047   -0.00000033   -0.00001036
     atom   26 type  1   force =     0.00000050    0.00000017   -0.00000776
     atom   27 type  1   force =     0.00000012   -0.00000004    0.00001621
     atom   28 type  1   force =    -0.00000014   -0.00000005    0.00001199
     atom   29 type  1   force =     0.00000000    0.00000000    0.00001677
     atom   30 type  1   force =    -0.00000027   -0.00000032   -0.00000194
     atom   31 type  1   force =    -0.00000011    0.00000015   -0.00002326
     atom   32 type  2   force =     0.00000011    0.00000000    0.00000884
     atom   33 type  2   force =    -0.00000005   -0.00000007    0.00000321
     atom   34 type  2   force =    -0.00000001    0.00000014   -0.00001266
     atom   35 type  2   force =    -0.00000009    0.00000009    0.00000716
     atom   36 type  2   force =    -0.00000012   -0.00000008   -0.00001287
     atom   37 type  2   force =    -0.00000002    0.00000008   -0.00002516
     atom   38 type  2   force =    -0.00000014    0.00000014    0.00000741
     atom   39 type  2   force =     0.00000011    0.00000002    0.00001611
     atom   40 type  2   force =     0.00000012    0.00000004    0.00000710
     atom   41 type  2   force =    -0.00000003   -0.00000013    0.00000708
     atom   42 type  2   force =    -0.00000019   -0.00000007   -0.00002248
     atom   43 type  2   force =    -0.00000018    0.00000022   -0.00001222
     atom   44 type  2   force =    -0.00000012   -0.00000001    0.00000798
     atom   45 type  2   force =     0.00000016   -0.00000013   -0.00002252
     atom   46 type  2   force =     0.00000012   -0.00000006   -0.00001280
     atom   47 type  2   force =    -0.00000004   -0.00000011    0.00001614
     atom   48 type  2   force =     0.00000004    0.00000011    0.00000798
     atom   49 type  2   force =     0.00000000   -0.00000000    0.00001291
     atom   50 type  2   force =    -0.00000010   -0.00000027   -0.00001225
     atom   51 type  2   force =    -0.00000006   -0.00000005   -0.00002504
     atom   52 type  2   force =    -0.00000003    0.00000008    0.00000317
     atom   53 type  2   force =     0.00000018    0.00000006    0.00000725
     atom   54 type  2   force =     0.00000028    0.00000004   -0.00001238
     atom   55 type  2   force =     0.00000007   -0.00000010    0.00000805
     atom   56 type  2   force =    -0.00000004   -0.00000019    0.00000735
     atom   57 type  2   force =    -0.00000005    0.00000009    0.00000889
     atom   58 type  2   force =    -0.00000005   -0.00000009    0.00000882
     atom   59 type  2   force =     0.00000007   -0.00000002   -0.00002493
     atom   60 type  2   force =     0.00000003    0.00000020   -0.00002239
     atom   61 type  2   force =    -0.00000007    0.00000009    0.00001612
     atom   62 type  2   force =     0.00000009   -0.00000001    0.00000305

     Total force =     0.017146     Total SCF correction =     0.000208

     DFT-D3 dispersion Force =     0.000102


     Computing stress (Cartesian axis) and pressure


     negative rho (up, down):  6.299E-03 6.299E-03
          total   stress  (Ry/bohr**3)                   (kbar)     P=       -9.95
  -0.00010134  -0.00000000  -0.00000000          -14.91       -0.00       -0.00
  -0.00000000  -0.00010133   0.00000000           -0.00      -14.91        0.00
  -0.00000000   0.00000000  -0.00000033           -0.00        0.00       -0.05

     kinetic stress (kbar)    856.30     -0.00     -0.00
                               -0.00    856.30      0.00
                               -0.00      0.00    961.23

     local   stress (kbar) -68779.31     -0.00      0.00
                               -0.00 -68779.31     -0.00
                                0.00     -0.00  68789.28

     nonloc. stress (kbar)     31.44      0.00     -0.00
                                0.00     31.44     -0.00
                               -0.00     -0.00     28.39

     hartree stress (kbar)  33986.82     -0.00     -0.00
                               -0.00  33986.82      0.00
                               -0.00      0.00 -33801.52

     exc-cor stress (kbar)    -93.27      0.00      0.00
                                0.00    -93.27      0.00
                                0.00      0.00   -101.41

     corecor stress (kbar)   -115.83     -0.00      0.00
                               -0.00   -115.83      0.00
                                0.00      0.00   -112.66

     ewald   stress (kbar)  34099.91      0.00     -0.00
                                0.00  34099.91      0.00
                               -0.00      0.00 -35763.35

     hubbard stress (kbar)      0.00      0.00      0.00
                                0.00      0.00      0.00
                                0.00      0.00      0.00

     DFT-D   stress (kbar)     -0.96     -0.00     -0.00
                               -0.00     -0.96     -0.00
                               -0.00     -0.00     -0.00

     XDM     stress (kbar)      0.00      0.00      0.00
                                0.00      0.00      0.00
                                0.00      0.00      0.00

     dft-nl  stress (kbar)      0.00      0.00      0.00
                                0.00      0.00      0.00
                                0.00      0.00      0.00

     TS-vdW  stress (kbar)      0.00      0.00      0.00
                                0.00      0.00      0.00
                                0.00      0.00      0.00

     MDB     stress (kbar)      0.00      0.00      0.00
                                0.00      0.00      0.00
                                0.00      0.00      0.00

     3D-RISM stress (kbar)      0.00      0.00      0.00
                                0.00      0.00      0.00
                                0.00      0.00      0.00


     Writing all to output data dir ./REDACTED_PATH :
     XML data file, charge density, pseudopotentials, collected wavefunctions

     init_run     :     37.97s CPU     40.01s WALL (       1 calls)
     electrons    :    554.60s CPU    573.94s WALL (       1 calls)
     forces       :     17.84s CPU     18.62s WALL (       1 calls)
     force_dftd3  :      0.18s CPU      0.18s WALL (       1 calls)
     stress       :     42.61s CPU     43.71s WALL (       1 calls)
     stres_dftd3  :      0.12s CPU      0.13s WALL (       1 calls)

     Called by init_run:
     wfcinit      :     26.36s CPU     27.49s WALL (       1 calls)
     wfcinit:atom :      0.21s CPU      0.36s WALL (       4 calls)
     wfcinit:wfcr :     24.42s CPU     25.25s WALL (       4 calls)
     potinit      :      3.48s CPU      4.04s WALL (       1 calls)
     hinit0       :      3.00s CPU      3.08s WALL (       1 calls)

     Called by electrons:
     c_bands      :    478.92s CPU    494.33s WALL (       5 calls)
     sum_band     :     47.69s CPU     49.54s WALL (       5 calls)
     v_of_rho     :     11.54s CPU     12.44s WALL (       5 calls)
     v_h          :      0.62s CPU      0.67s WALL (       5 calls)
     v_xc         :     15.29s CPU     16.55s WALL (       7 calls)
     newd         :      4.01s CPU      4.50s WALL (       5 calls)
     PAW_pot      :      1.38s CPU      1.39s WALL (       5 calls)
     mix_rho      :     12.69s CPU     13.34s WALL (       5 calls)
     energy_dftd3 :      0.01s CPU      0.01s WALL (       1 calls)

     Called by c_bands:
     init_us_2    :      8.61s CPU      8.76s WALL (      52 calls)
     cegterg      :    455.95s CPU    471.24s WALL (      24 calls)

     Called by sum_band:
     sum_band:wei :      0.00s CPU      0.00s WALL (       5 calls)
     sum_band:loo :     41.76s CPU     42.75s WALL (       5 calls)
     sum_band:buf :      0.70s CPU      0.71s WALL (      20 calls)
     sum_band:ini :      3.19s CPU      3.21s WALL (      20 calls)
     sum_band:cal :      7.61s CPU      7.65s WALL (      20 calls)
     sum_band:bec :      0.01s CPU      0.01s WALL (      20 calls)
     addusdens    :      4.36s CPU      5.03s WALL (       5 calls)
                                        0.00s GPU  (       5 calls)
     addusd:skk   :      0.25s CPU      0.38s WALL (      10 calls)
                                        0.00s GPU  (      10 calls)

     Called by *egterg:
     cdiaghg      :      3.99s CPU      4.06s WALL (     217 calls)
     cegterg:over :     33.30s CPU     33.51s WALL (     201 calls)
     cegterg:upda :     27.66s CPU     28.21s WALL (     201 calls)
     cegterg:last :     55.14s CPU     55.48s WALL (      80 calls)
     cdiaghg:chol :      0.30s CPU      0.31s WALL (     217 calls)
     cdiaghg:inve :      0.07s CPU      0.07s WALL (     217 calls)
     cdiaghg:para :      1.02s CPU      1.06s WALL (     434 calls)
     h_psi        :    306.16s CPU    319.40s WALL (     229 calls)
     s_psi        :     39.90s CPU     40.11s WALL (     229 calls)
     g_psi        :      1.43s CPU      1.45s WALL (     201 calls)

     Called by h_psi:
     h_psi:calbec :     41.14s CPU     41.39s WALL (     229 calls)
     vloc_psi     :    222.18s CPU    233.95s WALL (     229 calls)
                                        0.00s GPU  (     229 calls)
     add_vuspsi   :     40.06s CPU     40.28s WALL (     229 calls)

     General routines
     calbec       :     74.47s CPU     74.93s WALL (     317 calls)
     fft          :     13.13s CPU     14.34s WALL (     165 calls)
     ffts         :      4.91s CPU      5.45s WALL (     389 calls)
     fftw         :    179.65s CPU    191.68s WALL (   34180 calls)
     interpolate  :      1.42s CPU      1.50s WALL (      10 calls)

     Parallel routines

     PAW routines
     PAW_pot      :      1.38s CPU      1.39s WALL (       5 calls)

     PWSCF        :    653.87s CPU    678.33s WALL


   This run was terminated on:   4:51: 4  30Aug2026            

=------------------------------------------------------------------------------=
   JOB DONE.
=------------------------------------------------------------------------------=
Note: The following floating-point exceptions are signalling: IEEE_UNDERFLOW_FLAG IEEE_DENORMAL
Note: The following floating-point exceptions are signalling: IEEE_UNDERFLOW_FLAG IEEE_DENORMAL
Note: The following floating-point exceptions are signalling: IEEE_UNDERFLOW_FLAG IEEE_DENORMAL
Note: The following floating-point exceptions are signalling: IEEE_UNDERFLOW_FLAG IEEE_DENORMAL
Note: The following floating-point exceptions are signalling: IEEE_UNDERFLOW_FLAG IEEE_DENORMAL
Note: The following floating-point exceptions are signalling: IEEE_UNDERFLOW_FLAG IEEE_DENORMAL
Note: The following floating-point exceptions are signalling: IEEE_UNDERFLOW_FLAG IEEE_DENORMAL
Note: The following floating-point exceptions are signalling: IEEE_UNDERFLOW_FLAG IEEE_DENORMAL
Note: The following floating-point exceptions are signalling: IEEE_UNDERFLOW_FLAG IEEE_DENORMAL
Note: The following floating-point exceptions are signalling: IEEE_UNDERFLOW_FLAG IEEE_DENORMAL
Note: The following floating-point exceptions are signalling: IEEE_UNDERFLOW_FLAG IEEE_DENORMAL
Note: The following floating-point exceptions are signalling: IEEE_UNDERFLOW_FLAG IEEE_DENORMAL
Note: The following floating-point exceptions are signalling: IEEE_UNDERFLOW_FLAG IEEE_DENORMAL
Note: The following floating-point exceptions are signalling: IEEE_UNDERFLOW_FLAG IEEE_DENORMAL
Note: The following floating-point exceptions are signalling: IEEE_UNDERFLOW_FLAG IEEE_DENORMAL
Note: The following floating-point exceptions are signalling: IEEE_UNDERFLOW_FLAG IEEE_DENORMAL
Note: The following floating-point exceptions are signalling: IEEE_UNDERFLOW_FLAG IEEE_DENORMAL
Note: The following floating-point exceptions are signalling: IEEE_UNDERFLOW_FLAG IEEE_DENORMAL
Note: The following floating-point exceptions are signalling: IEEE_UNDERFLOW_FLAG IEEE_DENORMAL
Note: The following floating-point exceptions are signalling: IEEE_UNDERFLOW_FLAG IEEE_DENORMAL
Note: The following floating-point exceptions are signalling: IEEE_UNDERFLOW_FLAG IEEE_DENORMAL
Note: The following floating-point exceptions are signalling: IEEE_UNDERFLOW_FLAG IEEE_DENORMAL
Note: The following floating-point exceptions are signalling: IEEE_UNDERFLOW_FLAG IEEE_DENORMAL
Note: The following floating-point exceptions are signalling: IEEE_UNDERFLOW_FLAG IEEE_DENORMAL
Note: The following floating-point exceptions are signalling: IEEE_UNDERFLOW_FLAG IEEE_DENORMAL
Note: The following floating-point exceptions are signalling: IEEE_UNDERFLOW_FLAG IEEE_DENORMAL
Note: The following floating-point exceptions are signalling: IEEE_UNDERFLOW_FLAG IEEE_DENORMAL
Note: The following floating-point exceptions are signalling: IEEE_UNDERFLOW_FLAG IEEE_DENORMAL
Note: The following floating-point exceptions are signalling: IEEE_UNDERFLOW_FLAG IEEE_DENORMAL
Note: The following floating-point exceptions are signalling: IEEE_UNDERFLOW_FLAG IEEE_DENORMAL
Note: The following floating-point exceptions are signalling: IEEE_UNDERFLOW_FLAG IEEE_DENORMAL
Note: The following floating-point exceptions are signalling: IEEE_UNDERFLOW_FLAG IEEE_DENORMAL
Note: The following floating-point exceptions are signalling: IEEE_UNDERFLOW_FLAG IEEE_DENORMAL
Note: The following floating-point exceptions are signalling: IEEE_UNDERFLOW_FLAG IEEE_DENORMAL
Note: The following floating-point exceptions are signalling: IEEE_UNDERFLOW_FLAG IEEE_DENORMAL
Note: The following floating-point exceptions are signalling: IEEE_UNDERFLOW_FLAG IEEE_DENORMAL
Note: The following floating-point exceptions are signalling: IEEE_UNDERFLOW_FLAG IEEE_DENORMAL
Note: The following floating-point exceptions are signalling: IEEE_UNDERFLOW_FLAG IEEE_DENORMAL
Note: The following floating-point exceptions are signalling: IEEE_UNDERFLOW_FLAG IEEE_DENORMAL
Note: The following floating-point exceptions are signalling: IEEE_UNDERFLOW_FLAG IEEE_DENORMAL
Note: The following floating-point exceptions are signalling: IEEE_UNDERFLOW_FLAG IEEE_DENORMAL
Note: The following floating-point exceptions are signalling: IEEE_UNDERFLOW_FLAG IEEE_DENORMAL
Note: The following floating-point exceptions are signalling: IEEE_UNDERFLOW_FLAG IEEE_DENORMAL
Note: The following floating-point exceptions are signalling: IEEE_UNDERFLOW_FLAG IEEE_DENORMAL
Note: The following floating-point exceptions are signalling: IEEE_UNDERFLOW_FLAG IEEE_DENORMAL
Note: The following floating-point exceptions are signalling: IEEE_UNDERFLOW_FLAG IEEE_DENORMAL
Note: The following floating-point exceptions are signalling: IEEE_UNDERFLOW_FLAG IEEE_DENORMAL
Note: The following floating-point exceptions are signalling: IEEE_UNDERFLOW_FLAG IEEE_DENORMAL
