
     Program PWSCF v.7.5 starts on  2Sep2026 at  8:16:15 

     This program is part of the open-source Quantum ESPRESSO suite
     for quantum simulation of materials; please cite
         "P. Giannozzi et al., J. Phys.:Condens. Matter 21 395502 (2009);
         "P. Giannozzi et al., J. Phys.:Condens. Matter 29 465901 (2017);
         "P. Giannozzi et al., J. Chem. Phys. 152 154105 (2020);
          URL http://www.quantum-espresso.org", 
     in publications or presentations arising from this work. More details at
     http://www.quantum-espresso.org/quote

     Parallel version (MPI & OpenMP), running on     384 processor cores
     Number of MPI processes:               384
     Threads/MPI process:                     1

     MPI processes distributed on     2 nodes
     328393 MiB available memory on the printing compute node when the environment starts

     Reading input from ./REDACTED_PATH

     Current dimensions of program PWSCF are:
     Max number of different atomic species (ntypx) = 10
     Max number of k-points (npk) =  40000
     Max angular momentum in pseudopotentials (lmaxx) =  4
     file Al.pbe-n-kjpaw_psl.1.0.0.UPF: wavefunction(s)  3S 3P renormalized
     file O.pbe-n-kjpaw_psl.0.1.UPF: wavefunction(s)  2P renormalized
     file Nb.pbe-spn-kjpaw_psl.0.3.0.UPF: wavefunction(s)  4S 4P renormalized
     file N.pbe-n-kjpaw_psl.1.0.0.UPF: wavefunction(s)  2S renormalized

     K-points division:     npool     =       6
     R & G space division:  proc/nbgrp/npool/nimage =      64
     Subspace diagonalization in iterative solution of the eigenvalue problem:
     one sub-group per band group will be used
     ELPA distributed-memory algorithm (size of sub-group:  8*  8 procs)


     Parallelization info
     --------------------
     sticks:   dense  smooth     PW     G-vecs:    dense   smooth      PW
     Min         313     156     40               113151    39998    5324
     Max         314     157     41               113162    40021    5345
     Sum       20065   10033   2611              7241989  2560523  341313

     Using Slab Decomposition


     Title: 
     K3 stack C20X2 recovery                                                    


     bravais-lattice index     =            0
     lattice parameter (alat)  =      26.9796  a.u.
     unit-cell volume          =   53606.0115 (a.u.)^3
     number of atoms/cell      =          245
     number of atomic types    =            6
     number of electrons       =      1296.00
     number of Kohn-Sham states=          800
     kinetic-energy cutoff     =      50.0000  Ry
     charge density cutoff     =     400.0000  Ry
     scf convergence threshold =      5.0E-09
     mixing beta               =       0.0050
     number of iterations used =           20  local-TF  mixing
     Exchange-correlation= SLA  PW   PBX  PBC
                           (   1   4   3   4   0   0   0)

     celldm(1)=  26.979621  celldm(2)=   0.000000  celldm(3)=   0.000000
     celldm(4)=   0.000000  celldm(5)=   0.000000  celldm(6)=   0.000000

     crystal axes: (cart. coord. in units of alat)
               a(1) = (   1.000000   0.000000   0.000000 )  
               a(2) = (  -0.500000   0.866025   0.000000 )  
               a(3) = (   0.000000   0.000000   3.151923 )  

     reciprocal axes: (cart. coord. in units 2 pi/alat)
               b(1) = (  1.000000  0.577351 -0.000000 )  
               b(2) = (  0.000000  1.154701  0.000000 )  
               b(3) = (  0.000000 -0.000000  0.317267 )  


     PseudoPot. # 1 for Al read from file:
     ./REDACTED_PATH
     MD5 check sum: cfc449ca30b5f3223ec38ddd88ac046d
     Pseudo is Projector augmented-wave + core cor, Zval =  3.0
     Generated using "atomic" code by A. Dal Corso  v.5.1
     Shape of augmentation charge: PSQ
     Using radial grid of 1135 points,  6 beta functions with: 
                l(1) =   0
                l(2) =   0
                l(3) =   1
                l(4) =   1
                l(5) =   2
                l(6) =   2
     Q(r) pseudized with 0 coefficients 


     PseudoPot. # 2 for O  read from file:
     ./REDACTED_PATH
     MD5 check sum: 0234752ac141de4415c5fc33072bef88
     Pseudo is Projector augmented-wave + core cor, Zval =  6.0
     Generated using "atomic" code by A. Dal Corso  v.5.0.99 svn rev. 10869
     Shape of augmentation charge: BESSEL
     Using radial grid of 1095 points,  4 beta functions with: 
                l(1) =   0
                l(2) =   0
                l(3) =   1
                l(4) =   1
     Q(r) pseudized with 0 coefficients 


     PseudoPot. # 3 for Nb read from file:
     ./REDACTED_PATH
     MD5 check sum: 411d72ad547312f8017e2943ceca08cc
     Pseudo is Projector augmented-wave + core cor, Zval = 13.0
     Generated using "atomic" code by A. Dal Corso  v.5.0.99 svn rev. 10869
     Shape of augmentation charge: PSQ
     Using radial grid of 1227 points,  6 beta functions with: 
                l(1) =   0
                l(2) =   0
                l(3) =   1
                l(4) =   1
                l(5) =   2
                l(6) =   2
     Q(r) pseudized with 0 coefficients 


     PseudoPot. # 4 for Se read from file:
     ./REDACTED_PATH
     MD5 check sum: 1b3568f3a8ae88f9a2a0ad0698632c85
     Pseudo is Ultrasoft + core correction, Zval =  6.0
     Generated by new atomic code, or converted to UPF format
     Using radial grid of  877 points,  6 beta functions with: 
                l(1) =   0
                l(2) =   0
                l(3) =   1
                l(4) =   1
                l(5) =   2
                l(6) =   2
     Q(r) pseudized with  8 coefficients,  rinner =    1.300   1.300   1.300
                                                       1.300   1.300

     PseudoPot. # 5 for B  read from file:
     ./REDACTED_PATH
     MD5 check sum: 8c825a5969375aca5c2c6ad5945b3059
     Pseudo is Projector augmented-wave + core cor, Zval =  3.0
     Generated using &quot;atomic&quot; code by A. Dal Corso  v.6.3
     Shape of augmentation charge: PSQ
     Using radial grid of 1059 points,  4 beta functions with: 
                l(1) =   0
                l(2) =   0
                l(3) =   1
                l(4) =   1
     Q(r) pseudized with 0 coefficients 


     PseudoPot. # 6 for N  read from file:
     ./REDACTED_PATH
     MD5 check sum: 14c48229446f9f2d411169a3abcbc3fa
     Pseudo is Projector augmented-wave + core cor, Zval =  5.0
     Generated using &quot;atomic&quot; code by A. Dal Corso  v.6.3
     Shape of augmentation charge: PSQ
     Using radial grid of 1085 points,  4 beta functions with: 
                l(1) =   0
                l(2) =   0
                l(3) =   1
                l(4) =   1
     Q(r) pseudized with 0 coefficients 


     atomic species   valence    mass     pseudopotential
     Al                3.00    26.98154     Al( 1.00)
     O                 6.00    15.99900     O ( 1.00)
     Nb               13.00    92.90637     Nb( 1.00)
     Se                6.00    78.97100     Se( 1.00)
     B                 3.00    10.81100     B ( 1.00)
     N                 5.00    14.00700     N ( 1.00)

     Starting magnetic structure 
     atomic species   magnetization
     Al              0.000
     O               0.000
     Nb              0.020
     Se              0.000
     B               0.000
     N               0.000

     No symmetry found


                                    s                        frac. trans.

      isym =  1     identity                                     

 cryst.   s( 1) = (     1          0          0      )
                  (     0          1          0      )
                  (     0          0          1      )

 cart.    s( 1) = (  1.0000000  0.0000000  0.0000000 )
                  (  0.0000000  1.0000000  0.0000000 )
                  (  0.0000000  0.0000000  1.0000000 )


   Cartesian axes

     site n.     atom                  positions (alat units)
         1        Al     tau(   1) = (   0.1666667   0.0962250   0.8513798  )
         2        Al     tau(   2) = (   0.0000000   0.1924501   0.9841938  )
         3        Al     tau(   3) = (   0.0000000   0.0000000   0.8177469  )
         4        Al     tau(   4) = (   0.0000000   0.0000000   1.0026577  )
         5        Al     tau(   5) = (   0.1666667   0.0962250   1.0737814  )
         6        Al     tau(   6) = (   0.0000000   0.1924501   0.7004272  )
         7        O      tau(   7) = (   0.2687667   0.0962250   0.7590871  )
         8        O      tau(   8) = (   0.1156167   0.1846462   0.7590871  )
         9        O      tau(   9) = (   0.1156167   0.0078039   0.7590871  )
        10        O      tau(  10) = (   0.1047547   0.1975389   1.0655402  )
        11        O      tau(  11) = (  -0.0567844   0.2806259   1.0655402  )
        12        O      tau(  12) = (  -0.0479703   0.0991855   1.0655402  )
        13        O      tau(  13) = (   0.2293632   0.0007279   0.9135286  )
        14        O      tau(  14) = (   0.8846880   0.1982704   0.9135286  )
        15        O      tau(  15) = (   0.0526155   0.0896768   0.9135286  )
        16        Al     tau(  16) = (  -0.0000000   0.3849000   0.8513798  )
        17        Al     tau(  17) = (  -0.1666667   0.4811251   0.9841938  )
        18        Al     tau(  18) = (  -0.1666667   0.2886750   0.8177469  )
        19        Al     tau(  19) = (  -0.1666667   0.2886750   1.0026577  )
        20        Al     tau(  20) = (  -0.0000000   0.3849000   1.0737814  )
        21        Al     tau(  21) = (  -0.1666667   0.4811251   0.7004272  )
        22        O      tau(  22) = (   0.1021000   0.3849000   0.7590871  )
        23        O      tau(  23) = (  -0.0510500   0.4733212   0.7590871  )
        24        O      tau(  24) = (  -0.0510500   0.2964789   0.7590871  )
        25        O      tau(  25) = (  -0.0619120   0.4862139   1.0655402  )
        26        O      tau(  26) = (  -0.2234510   0.5693009   1.0655402  )
        27        O      tau(  27) = (  -0.2146370   0.3878605   1.0655402  )
        28        O      tau(  28) = (   0.0626965   0.2894029   0.9135286  )
        29        O      tau(  29) = (   0.7180214   0.4869454   0.9135286  )
        30        O      tau(  30) = (  -0.1140512   0.3783518   0.9135286  )
        31        Al     tau(  31) = (  -0.1666667   0.6735750   0.8513798  )
        32        Al     tau(  32) = (  -0.3333333   0.7698001   0.9841938  )
        33        Al     tau(  33) = (  -0.3333333   0.5773500   0.8177469  )
        34        Al     tau(  34) = (  -0.3333333   0.5773500   1.0026577  )
        35        Al     tau(  35) = (  -0.1666667   0.6735750   1.0737814  )
        36        Al     tau(  36) = (  -0.3333333   0.7698001   0.7004272  )
        37        O      tau(  37) = (  -0.0645667   0.6735750   0.7590871  )
        38        O      tau(  38) = (  -0.2177167   0.7619962   0.7590871  )
        39        O      tau(  39) = (  -0.2177167   0.5851539   0.7590871  )
        40        O      tau(  40) = (  -0.2285787   0.7748889   1.0655402  )
        41        O      tau(  41) = (  -0.3901177   0.8579759   1.0655402  )
        42        O      tau(  42) = (  -0.3813037   0.6765355   1.0655402  )
        43        O      tau(  43) = (  -0.1039702   0.5780779   0.9135286  )
        44        O      tau(  44) = (   0.5513547   0.7756204   0.9135286  )
        45        O      tau(  45) = (  -0.2807179   0.6670268   0.9135286  )
        46        Al     tau(  46) = (   0.5000000   0.0962250   0.8513798  )
        47        Al     tau(  47) = (   0.3333333   0.1924501   0.9841938  )
        48        Al     tau(  48) = (   0.3333333   0.0000000   0.8177469  )
        49        Al     tau(  49) = (   0.3333333   0.0000000   1.0026577  )
        50        Al     tau(  50) = (   0.5000000   0.0962250   1.0737814  )
        51        Al     tau(  51) = (   0.3333333   0.1924501   0.7004272  )
        52        O      tau(  52) = (   0.6021000   0.0962250   0.7590871  )
        53        O      tau(  53) = (   0.4489500   0.1846462   0.7590871  )
        54        O      tau(  54) = (   0.4489500   0.0078039   0.7590871  )
        55        O      tau(  55) = (   0.4380880   0.1975389   1.0655402  )
        56        O      tau(  56) = (   0.2765490   0.2806259   1.0655402  )
        57        O      tau(  57) = (   0.2853630   0.0991855   1.0655402  )
        58        O      tau(  58) = (   0.5626965   0.0007279   0.9135286  )
        59        O      tau(  59) = (   0.2180214   0.1982704   0.9135286  )
        60        O      tau(  60) = (   0.3859488   0.0896768   0.9135286  )
        61        Al     tau(  61) = (   0.3333333   0.3849000   0.8513798  )
        62        Al     tau(  62) = (   0.1666667   0.4811251   0.9841938  )
        63        Al     tau(  63) = (   0.1666667   0.2886750   0.8177469  )
        64        Al     tau(  64) = (   0.1666667   0.2886750   1.0026577  )
        65        Al     tau(  65) = (   0.3333333   0.3849000   1.0737814  )
        66        Al     tau(  66) = (   0.1666667   0.4811251   0.7004272  )
        67        O      tau(  67) = (   0.4354333   0.3849000   0.7590871  )
        68        O      tau(  68) = (   0.2822833   0.4733212   0.7590871  )
        69        O      tau(  69) = (   0.2822833   0.2964789   0.7590871  )
        70        O      tau(  70) = (   0.2714213   0.4862139   1.0655402  )
        71        O      tau(  71) = (   0.1098823   0.5693009   1.0655402  )
        72        O      tau(  72) = (   0.1186963   0.3878605   1.0655402  )
        73        O      tau(  73) = (   0.3960298   0.2894029   0.9135286  )
        74        O      tau(  74) = (   0.0513547   0.4869454   0.9135286  )
        75        O      tau(  75) = (   0.2192821   0.3783518   0.9135286  )
        76        Al     tau(  76) = (   0.1666667   0.6735750   0.8513798  )
        77        Al     tau(  77) = (   0.0000000   0.7698001   0.9841938  )
        78        Al     tau(  78) = (   0.0000000   0.5773500   0.8177469  )
        79        Al     tau(  79) = (   0.0000000   0.5773500   1.0026577  )
        80        Al     tau(  80) = (   0.1666667   0.6735750   1.0737814  )
        81        Al     tau(  81) = (   0.0000000   0.7698001   0.7004272  )
        82        O      tau(  82) = (   0.2687667   0.6735750   0.7590871  )
        83        O      tau(  83) = (   0.1156167   0.7619962   0.7590871  )
        84        O      tau(  84) = (   0.1156167   0.5851539   0.7590871  )
        85        O      tau(  85) = (   0.1047547   0.7748889   1.0655402  )
        86        O      tau(  86) = (  -0.0567844   0.8579759   1.0655402  )
        87        O      tau(  87) = (  -0.0479703   0.6765355   1.0655402  )
        88        O      tau(  88) = (   0.2293632   0.5780779   0.9135286  )
        89        O      tau(  89) = (  -0.1153120   0.7756204   0.9135286  )
        90        O      tau(  90) = (   0.0526155   0.6670268   0.9135286  )
        91        Al     tau(  91) = (   0.8333333   0.0962250   0.8513798  )
        92        Al     tau(  92) = (   0.6666667   0.1924501   0.9841938  )
        93        Al     tau(  93) = (   0.6666667   0.0000000   0.8177469  )
        94        Al     tau(  94) = (   0.6666667   0.0000000   1.0026577  )
        95        Al     tau(  95) = (   0.8333333   0.0962250   1.0737814  )
        96        Al     tau(  96) = (   0.6666667   0.1924501   0.7004272  )
        97        O      tau(  97) = (   0.9354333   0.0962250   0.7590871  )
        98        O      tau(  98) = (   0.7822833   0.1846462   0.7590871  )
        99        O      tau(  99) = (   0.7822833   0.0078039   0.7590871  )
       100        O      tau( 100) = (   0.7714213   0.1975389   1.0655402  )
       101        O      tau( 101) = (   0.6098823   0.2806259   1.0655402  )
       102        O      tau( 102) = (   0.6186963   0.0991855   1.0655402  )
       103        O      tau( 103) = (   0.8960298   0.0007279   0.9135286  )
       104        O      tau( 104) = (   0.5513547   0.1982704   0.9135286  )
       105        O      tau( 105) = (   0.7192821   0.0896768   0.9135286  )
       106        Al     tau( 106) = (   0.6666667   0.3849000   0.8513798  )
       107        Al     tau( 107) = (   0.5000000   0.4811251   0.9841938  )
       108        Al     tau( 108) = (   0.5000000   0.2886750   0.8177469  )
       109        Al     tau( 109) = (   0.5000000   0.2886750   1.0026577  )
       110        Al     tau( 110) = (   0.6666667   0.3849000   1.0737814  )
       111        Al     tau( 111) = (   0.5000000   0.4811251   0.7004272  )
       112        O      tau( 112) = (   0.7687667   0.3849000   0.7590871  )
       113        O      tau( 113) = (   0.6156167   0.4733212   0.7590871  )
       114        O      tau( 114) = (   0.6156167   0.2964789   0.7590871  )
       115        O      tau( 115) = (   0.6047547   0.4862139   1.0655402  )
       116        O      tau( 116) = (   0.4432156   0.5693009   1.0655402  )
       117        O      tau( 117) = (   0.4520297   0.3878605   1.0655402  )
       118        O      tau( 118) = (   0.7293632   0.2894029   0.9135286  )
       119        O      tau( 119) = (   0.3846880   0.4869454   0.9135286  )
       120        O      tau( 120) = (   0.5526155   0.3783518   0.9135286  )
       121        Al     tau( 121) = (   0.5000000   0.6735750   0.8513798  )
       122        Al     tau( 122) = (   0.3333333   0.7698001   0.9841938  )
       123        Al     tau( 123) = (   0.3333333   0.5773500   0.8177469  )
       124        Al     tau( 124) = (   0.3333333   0.5773500   1.0026577  )
       125        Al     tau( 125) = (   0.5000000   0.6735750   1.0737814  )
       126        Al     tau( 126) = (   0.3333333   0.7698001   0.7004272  )
       127        O      tau( 127) = (   0.6021000   0.6735750   0.7590871  )
       128        O      tau( 128) = (   0.4489500   0.7619962   0.7590871  )
       129        O      tau( 129) = (   0.4489500   0.5851539   0.7590871  )
       130        O      tau( 130) = (   0.4380880   0.7748889   1.0655402  )
       131        O      tau( 131) = (   0.2765490   0.8579759   1.0655402  )
       132        O      tau( 132) = (   0.2853630   0.6765355   1.0655402  )
       133        O      tau( 133) = (   0.5626965   0.5780779   0.9135286  )
       134        O      tau( 134) = (   0.2180214   0.7756204   0.9135286  )
       135        O      tau( 135) = (   0.3859488   0.6670268   0.9135286  )
       136        Nb     tau( 136) = (   0.1666818   0.0962262   1.3928999  )
       137        Se     tau( 137) = (   0.1662111   0.2403240   1.5087056  )
       138        Se     tau( 138) = (   0.1671340   0.2401086   1.2774889  )
       139        Nb     tau( 139) = (   0.0416277   0.3114126   1.3914489  )
       140        Se     tau( 140) = (   0.0426891   0.4578421   1.5039540  )
       141        Se     tau( 141) = (   0.0399368   0.4545423   1.2740581  )
       142        Nb     tau( 142) = (  -0.0843591   0.5286109   1.3896145  )
       143        Se     tau( 143) = (  -0.0820192   0.6735507   1.5050556  )
       144        Se     tau( 144) = (  -0.0874972   0.6732950   1.2754832  )
       145        Nb     tau( 145) = (  -0.2095591   0.7463934   1.3930791  )
       146        Se     tau( 146) = (   0.2917356   0.0244224   1.5087437  )
       147        Se     tau( 147) = (   0.2909976   0.0238684   1.2775805  )
       148        Nb     tau( 148) = (   0.4155057   0.0969538   1.3915391  )
       149        Se     tau( 149) = (   0.4170579   0.2403859   1.5084472  )
       150        Se     tau( 150) = (   0.4163197   0.2413736   1.2774329  )
       151        Nb     tau( 151) = (   0.2916293   0.3113065   1.3930209  )
       152        Se     tau( 152) = (   0.2909552   0.4581913   1.5049851  )
       153        Se     tau( 153) = (   0.2940047   0.4535881   1.2754146  )
       154        Nb     tau( 154) = (   0.1668601   0.5274992   1.3865517  )
       155        Se     tau( 155) = (   0.1666528   0.6734722   1.4998410  )
       156        Se     tau( 156) = (   0.1666658   0.6735591   1.2724212  )
       157        Nb     tau( 157) = (   0.0400960   0.7463830   1.3866370  )
       158        Se     tau( 158) = (   0.5418688   0.0227255   1.5040237  )
       159        Se     tau( 159) = (   0.5403026   0.0269424   1.2742264  )
       160        Nb     tau( 160) = (   0.6666629   0.0974475   1.3897105  )
       161        Se     tau( 161) = (   0.6670268   0.2400398   1.5070972  )
       162        Se     tau( 162) = (   0.6672509   0.2415882   1.2761461  )
       163        Nb     tau( 163) = (   0.5416855   0.3125482   1.3914170  )
       164        Se     tau( 164) = (   0.5409572   0.4570002   1.5071103  )
       165        Se     tau( 165) = (   0.5422099   0.4561638   1.2760927  )
       166        Nb     tau( 166) = (   0.4176810   0.5286071   1.3896009  )
       167        Se     tau( 167) = (   0.4154589   0.6739054   1.5040380  )
       168        Se     tau( 168) = (   0.4197599   0.6733256   1.2741688  )
       169        Nb     tau( 169) = (   0.2930404   0.7467380   1.3866413  )
       170        Se     tau( 170) = (   0.7910517   0.0228267   1.5050716  )
       171        Se     tau( 171) = (   0.7934915   0.0279674   1.2755456  )
       172        Nb     tau( 172) = (   0.9179239   0.0969241   1.3930981  )
       173        Se     tau( 173) = (  -0.0834085   0.2409880   1.5084365  )
       174        Se     tau( 174) = (  -0.0838095   0.2398993   1.2774511  )
       175        Nb     tau( 175) = (   0.7918596   0.3129202   1.3914154  )
       176        Se     tau( 176) = (  -0.2080058   0.4575643   1.5071335  )
       177        Se     tau( 177) = (  -0.2094467   0.4571253   1.2760845  )
       178        Nb     tau( 178) = (   0.6664680   0.5292888   1.3914751  )
       179        Se     tau( 179) = (  -0.3336377   0.6732043   1.5085083  )
       180        Se     tau( 180) = (  -0.3325301   0.6735377   1.2774706  )
       181        Nb     tau( 181) = (   0.5428415   0.7463150   1.3915527  )
       182        Se     tau( 182) = (   0.0420279   0.0236896   1.5087409  )
       183        Se     tau( 183) = (   0.0418836   0.0247684   1.2775798  )
       184        B      tau( 184) = (  -0.0268333   0.1707980   1.7436202  )
       185        B      tau( 185) = (   0.9086503   0.0030854   1.7434470  )
       186        B      tau( 186) = (   0.3441541   0.7015000   1.7438299  )
       187        B      tau( 187) = (   0.2795859   0.5338965   1.7429295  )
       188        B      tau( 188) = (   0.2150211   0.3663068   1.7434337  )
       189        B      tau( 189) = (   0.1505585   0.1987310   1.7434598  )
       190        B      tau( 190) = (   0.0860048   0.0310464   1.7434679  )
       191        B      tau( 191) = (   0.5215116   0.7294580   1.7453052  )
       192        B      tau( 192) = (   0.4570305   0.5618708   1.7444304  )
       193        B      tau( 193) = (   0.3924841   0.3942214   1.7427876  )
       194        B      tau( 194) = (   0.3280060   0.2265767   1.7436256  )
       195        B      tau( 195) = (   0.2635005   0.0589841   1.7434671  )
       196        B      tau( 196) = (  -0.3011088   0.7574126   1.7436283  )
       197        B      tau( 197) = (   0.6343932   0.5898573   1.7443394  )
       198        B      tau( 198) = (   0.5698894   0.4222060   1.7432285  )
       199        B      tau( 199) = (   0.5053612   0.2544969   1.7443393  )
       200        B      tau( 200) = (   0.4409051   0.0869390   1.7452985  )
       201        B      tau( 201) = (  -0.1236066   0.7853965   1.7434411  )
       202        B      tau( 202) = (  -0.1881630   0.6177501   1.7427938  )
       203        B      tau( 203) = (  -0.2526299   0.4501188   1.7432337  )
       204        B      tau( 204) = (   0.6828031   0.2824602   1.7432265  )
       205        B      tau( 205) = (   0.6182806   0.1148904   1.7444281  )
       206        B      tau( 206) = (   0.0537972   0.8133474   1.7438206  )
       207        B      tau( 207) = (  -0.0107520   0.6456871   1.7429353  )
       208        B      tau( 208) = (  -0.0752475   0.4780269   1.7444310  )
       209        B      tau( 209) = (  -0.1396911   0.3104319   1.7443364  )
       210        B      tau( 210) = (   0.7957429   0.1428157   1.7427880  )
       211        B      tau( 211) = (   0.2312312   0.8412312   1.7429345  )
       212        B      tau( 212) = (   0.1666885   0.6736052   1.7425708  )
       213        B      tau( 213) = (   0.1021137   0.5059678   1.7438177  )
       214        B      tau( 214) = (   0.0376471   0.3383910   1.7452861  )
       215        N      tau( 215) = (   0.2634930   0.6363286   1.7430011  )
       216        N      tau( 216) = (   0.1988763   0.4687584   1.7434609  )
       217        N      tau( 217) = (   0.1343883   0.3012139   1.7447005  )
       218        N      tau( 218) = (   0.0699110   0.1335405   1.7434252  )
       219        N      tau( 219) = (   0.5053379   0.8318266   1.7447203  )
       220        N      tau( 220) = (   0.4409078   0.6642542   1.7454723  )
       221        N      tau( 221) = (   0.3764091   0.4966922   1.7432347  )
       222        N      tau( 222) = (   0.3118241   0.3290462   1.7427340  )
       223        N      tau( 223) = (   0.2473676   0.1614223   1.7434288  )
       224        N      tau( 224) = (  -0.3172148   0.8598241   1.7434328  )
       225        N      tau( 225) = (  -0.3817738   0.6922618   1.7453860  )
       226        N      tau( 226) = (   0.5537963   0.5246884   1.7446419  )
       227        N      tau( 227) = (   0.4892515   0.3569593   1.7432835  )
       228        N      tau( 228) = (   0.4247602   0.1892941   1.7453846  )
       229        N      tau( 229) = (   0.3603378   0.0217471   1.7447142  )
       230        N      tau( 230) = (  -0.2042769   0.7201914   1.7427367  )
       231        N      tau( 231) = (  -0.2688166   0.5525777   1.7432859  )
       232        N      tau( 232) = (   0.6666877   0.3849292   1.7429547  )
       233        N      tau( 233) = (   0.6020983   0.2172829   1.7446425  )
       234        N      tau( 234) = (   0.5376754   0.0497357   1.7454629  )
       235        N      tau( 235) = (  -0.0268086   0.7481517   1.7434669  )
       236        N      tau( 236) = (  -0.0913833   0.5804364   1.7432458  )
       237        N      tau( 237) = (  -0.1558307   0.4128165   1.7446501  )
       238        N      tau( 238) = (   0.7796289   0.2452505   1.7432789  )
       239        N      tau( 239) = (   0.7150382   0.0776594   1.7432393  )
       240        N      tau( 240) = (   0.1505678   0.7760778   1.7429979  )
       241        N      tau( 241) = (   0.0860037   0.6084073   1.7430006  )
       242        N      tau( 242) = (   0.0214812   0.4407987   1.7454527  )
       243        N      tau( 243) = (  -0.0429225   0.2732320   1.7453746  )
       244        N      tau( 244) = (   0.8925166   0.1055500   1.7427360  )
       245        N      tau( 245) = (   0.3279967   0.8039032   1.7434758  )

     --------------------------------------------
     DFT-D3 Dispersion Correction (3-body terms):
     --------------------------------------------
       Reference C6 values for interpolation: 

         atom   Coordination number   C6
         B          0.000           214.36
         B          0.971           150.74
         B          1.944           106.23
         B          2.913            62.89
         B          4.586            56.06
         N          0.000            50.54
         N          0.994            44.25
         N          2.014            39.35
         N          2.990            31.16
         O          0.000            31.01
         O          0.993            25.63
         O          1.989            20.74
         Al         0.000          1081.08
         Al         0.965           875.51
         Al         1.931           513.50
         Al         2.915           307.19
         Se         0.000           427.35
         Se         0.990           427.57
         Se         1.981           421.05
         Nb         0.000          2950.50
         Nb         1.954          1161.16
         Nb         2.922           857.79

       Values used:

         atom   Coordination number  R0_AB[au]  C6      C8
         Al         9.715            3.789    307.19  29441.29
         Al        10.550            3.789    307.19  29441.29
         Al        10.102            3.789    307.19  29441.29
         Al        11.462            3.789    307.19  29441.29
         Al         7.122            3.789    307.19  29441.29
         Al         4.169            3.789    307.19  29441.31
         O          2.996            2.345     20.74    418.58
         O          2.996            2.345     20.74    418.58
         O          2.996            2.345     20.74    418.58
         O          3.060            2.345     20.74    418.58
         O          3.064            2.345     20.74    418.58
         O          3.056            2.345     20.74    418.58
         O          3.992            2.345     20.74    418.58
         O          3.992            2.345     20.74    418.58
         O          3.992            2.345     20.74    418.58
         Al         9.715            3.789    307.19  29441.29
         Al        10.552            3.789    307.19  29441.29
         Al        10.102            3.789    307.19  29441.29
         Al        11.458            3.789    307.19  29441.29
         Al         7.332            3.789    307.19  29441.29
         Al         4.169            3.789    307.19  29441.31
         O          2.996            2.345     20.74    418.58
         O          2.996            2.345     20.74    418.58
         O          2.996            2.345     20.74    418.58
         O          3.057            2.345     20.74    418.58
         O          3.056            2.345     20.74    418.58
         O          3.062            2.345     20.74    418.58
         O          3.992            2.345     20.74    418.58
         O          3.992            2.345     20.74    418.58
         O          3.992            2.345     20.74    418.58
         Al         9.715            3.789    307.19  29441.29
         Al        10.550            3.789    307.19  29441.29
         Al        10.102            3.789    307.19  29441.29
         Al        11.458            3.789    307.19  29441.29
         Al         7.319            3.789    307.19  29441.29
         Al         4.169            3.789    307.19  29441.31
         O          2.996            2.345     20.74    418.58
         O          2.996            2.345     20.74    418.58
         O          2.996            2.345     20.74    418.58
         O          3.056            2.345     20.74    418.58
         O          3.060            2.345     20.74    418.58
         O          3.064            2.345     20.74    418.58
         O          3.992            2.345     20.74    418.58
         O          3.992            2.345     20.74    418.58
         O          3.992            2.345     20.74    418.58
         Al         9.715            3.789    307.19  29441.29
         Al        10.550            3.789    307.19  29441.29
         Al        10.102            3.789    307.19  29441.29
         Al        11.462            3.789    307.19  29441.29
         Al         7.330            3.789    307.19  29441.29
         Al         4.169            3.789    307.19  29441.31
         O          2.996            2.345     20.74    418.58
         O          2.996            2.345     20.74    418.58
         O          2.996            2.345     20.74    418.58
         O          3.064            2.345     20.74    418.58
         O          3.056            2.345     20.74    418.58
         O          3.060            2.345     20.74    418.58
         O          3.992            2.345     20.74    418.58
         O          3.992            2.345     20.74    418.58
         O          3.992            2.345     20.74    418.58
         Al         9.715            3.789    307.19  29441.29
         Al        10.550            3.789    307.19  29441.29
         Al        10.102            3.789    307.19  29441.29
         Al        11.462            3.789    307.19  29441.29
         Al         7.320            3.789    307.19  29441.29
         Al         4.169            3.789    307.19  29441.31
         O          2.996            2.345     20.74    418.58
         O          2.996            2.345     20.74    418.58
         O          2.996            2.345     20.74    418.58
         O          3.068            2.345     20.74    418.58
         O          3.057            2.345     20.74    418.58
         O          3.057            2.345     20.74    418.58
         O          3.992            2.345     20.74    418.58
         O          3.992            2.345     20.74    418.58
         O          3.992            2.345     20.74    418.58
         Al         9.715            3.789    307.19  29441.29
         Al        10.550            3.789    307.19  29441.29
         Al        10.102            3.789    307.19  29441.29
         Al        11.458            3.789    307.19  29441.29
         Al         7.621            3.789    307.19  29441.29
         Al         4.169            3.789    307.19  29441.31
         O          2.996            2.345     20.74    418.58
         O          2.996            2.345     20.74    418.58
         O          2.996            2.345     20.74    418.58
         O          3.057            2.345     20.74    418.58
         O          3.057            2.345     20.74    418.58
         O          3.068            2.345     20.74    418.58
         O          3.992            2.345     20.74    418.58
         O          3.992            2.345     20.74    418.58
         O          3.992            2.345     20.74    418.58
         Al         9.715            3.789    307.19  29441.29
         Al        10.552            3.789    307.19  29441.29
         Al        10.102            3.789    307.19  29441.29
         Al        11.458            3.789    307.19  29441.29
         Al         7.319            3.789    307.19  29441.29
         Al         4.169            3.789    307.19  29441.31
         O          2.996            2.345     20.74    418.58
         O          2.996            2.345     20.74    418.58
         O          2.996            2.345     20.74    418.58
         O          3.056            2.345     20.74    418.58
         O          3.062            2.345     20.74    418.58
         O          3.057            2.345     20.74    418.58
         O          3.992            2.345     20.74    418.58
         O          3.992            2.345     20.74    418.58
         O          3.992            2.345     20.74    418.58
         Al         9.715            3.789    307.19  29441.29
         Al        10.552            3.789    307.19  29441.29
         Al        10.102            3.789    307.19  29441.29
         Al        11.458            3.789    307.19  29441.29
         Al         7.135            3.789    307.19  29441.29
         Al         4.169            3.789    307.19  29441.31
         O          2.996            2.345     20.74    418.58
         O          2.996            2.345     20.74    418.58
         O          2.996            2.345     20.74    418.58
         O          3.062            2.345     20.74    418.58
         O          3.057            2.345     20.74    418.58
         O          3.056            2.345     20.74    418.58
         O          3.992            2.345     20.74    418.58
         O          3.992            2.345     20.74    418.58
         O          3.992            2.345     20.74    418.58
         Al         9.715            3.789    307.19  29441.29
         Al        10.550            3.789    307.19  29441.29
         Al        10.102            3.789    307.19  29441.29
         Al        11.458            3.789    307.19  29441.29
         Al         7.331            3.789    307.19  29441.29
         Al         4.169            3.789    307.19  29441.31
         O          2.996            2.345     20.74    418.58
         O          2.996            2.345     20.74    418.58
         O          2.996            2.345     20.74    418.58
         O          3.057            2.345     20.74    418.58
         O          3.068            2.345     20.74    418.58
         O          3.057            2.345     20.74    418.58
         O          3.992            2.345     20.74    418.58
         O          3.992            2.345     20.74    418.58
         O          3.992            2.345     20.74    418.58
         Nb         8.747            3.647    857.79 111659.18
         Se         3.489            3.332    421.05  29958.36
         Se         3.601            3.332    421.05  29958.36
         Nb         8.679            3.647    857.79 111659.18
         Se         3.504            3.332    421.05  29958.36
         Se         3.855            3.332    421.05  29958.36
         Nb         8.598            3.647    857.79 111659.18
         Se         3.502            3.332    421.05  29958.36
         Se         3.866            3.332    421.05  29958.36
         Nb         8.678            3.647    857.79 111659.18
         Se         3.490            3.332    421.05  29958.36
         Se         3.601            3.332    421.05  29958.36
         Nb         8.675            3.647    857.79 111659.18
         Se         3.483            3.332    421.05  29958.36
         Se         3.604            3.332    421.05  29958.36
         Nb         8.681            3.647    857.79 111659.18
         Se         3.502            3.332    421.05  29958.36
         Se         3.868            3.332    421.05  29958.36
         Nb         8.515            3.647    857.79 111659.18
         Se         3.539            3.332    421.05  29958.36
         Se         4.147            3.332    421.05  29958.36
         Nb         8.512            3.647    857.79 111659.18
         Se         3.504            3.332    421.05  29958.36
         Se         3.854            3.332    421.05  29958.36
         Nb         8.593            3.647    857.79 111659.18
         Se         3.485            3.332    421.05  29958.36
         Se         3.608            3.332    421.05  29958.36
         Nb         8.664            3.647    857.79 111659.18
         Se         3.485            3.332    421.05  29958.36
         Se         3.608            3.332    421.05  29958.36
         Nb         8.597            3.647    857.79 111659.18
         Se         3.504            3.332    421.05  29958.36
         Se         3.854            3.332    421.05  29958.36
         Nb         8.512            3.647    857.79 111659.18
         Se         3.501            3.332    421.05  29958.36
         Se         3.866            3.332    421.05  29958.36
         Nb         8.677            3.647    857.79 111659.18
         Se         3.483            3.332    421.05  29958.36
         Se         3.604            3.332    421.05  29958.36
         Nb         8.664            3.647    857.79 111659.18
         Se         3.485            3.332    421.05  29958.36
         Se         3.607            3.332    421.05  29958.36
         Nb         8.665            3.647    857.79 111659.18
         Se         3.483            3.332    421.05  29958.36
         Se         3.604            3.332    421.05  29958.36
         Nb         8.676            3.647    857.79 111659.18
         Se         3.490            3.332    421.05  29958.36
         Se         3.601            3.332    421.05  29958.36
         B          3.258            3.039     62.94   2507.78
         B          3.256            3.039     62.94   2507.82
         B          3.257            3.039     62.94   2507.79
         B          3.257            3.039     62.94   2507.79
         B          3.256            3.039     62.94   2507.82
         B          3.262            3.039     62.93   2507.67
         B          3.262            3.039     62.93   2507.67
         B          3.256            3.039     62.94   2507.82
         B          3.255            3.039     62.94   2507.83
         B          3.255            3.039     62.94   2507.83
         B          3.258            3.039     62.94   2507.78
         B          3.262            3.039     62.93   2507.67
         B          3.258            3.039     62.94   2507.78
         B          3.257            3.039     62.94   2507.78
         B          3.261            3.039     62.93   2507.70
         B          3.257            3.039     62.94   2507.78
         B          3.256            3.039     62.94   2507.82
         B          3.256            3.039     62.94   2507.82
         B          3.255            3.039     62.94   2507.83
         B          3.261            3.039     62.93   2507.70
         B          3.261            3.039     62.93   2507.70
         B          3.255            3.039     62.94   2507.83
         B          3.257            3.039     62.94   2507.79
         B          3.257            3.039     62.94   2507.79
         B          3.255            3.039     62.94   2507.83
         B          3.257            3.039     62.94   2507.78
         B          3.255            3.039     62.94   2507.83
         B          3.257            3.039     62.94   2507.79
         B          3.259            3.039     62.94   2507.74
         B          3.257            3.039     62.94   2507.79
         B          3.256            3.039     62.94   2507.82
         N          3.103            2.478     31.23    689.02
         N          3.104            2.478     31.23    689.01
         N          3.106            2.478     31.23    688.99
         N          3.104            2.478     31.23    689.01
         N          3.106            2.478     31.23    688.99
         N          3.107            2.478     31.23    688.98
         N          3.104            2.478     31.23    689.01
         N          3.104            2.478     31.23    689.02
         N          3.104            2.478     31.23    689.01
         N          3.104            2.478     31.23    689.01
         N          3.107            2.478     31.23    688.98
         N          3.106            2.478     31.23    688.99
         N          3.104            2.478     31.23    689.01
         N          3.107            2.478     31.23    688.98
         N          3.106            2.478     31.23    688.99
         N          3.104            2.478     31.23    689.02
         N          3.104            2.478     31.23    689.01
         N          3.103            2.478     31.23    689.02
         N          3.106            2.478     31.23    688.99
         N          3.107            2.478     31.23    688.98
         N          3.104            2.478     31.23    689.01
         N          3.104            2.478     31.23    689.01
         N          3.106            2.478     31.23    688.99
         N          3.104            2.478     31.23    689.01
         N          3.104            2.478     31.23    689.01
         N          3.103            2.478     31.23    689.02
         N          3.103            2.478     31.23    689.02
         N          3.107            2.478     31.23    688.98
         N          3.107            2.478     31.23    688.98
         N          3.104            2.478     31.23    689.02
         N          3.104            2.478     31.23    689.01

         Molecular C6 ( Ry / a.u.^6 ) =   7965072.73


   Crystallographic axes

     site n.     atom                  positions (cryst. coord.)
         1        Al     tau(   1) = (  0.2222222  0.1111112  0.2701144  )
         2        Al     tau(   2) = (  0.1111112  0.2222223  0.3122519  )
         3        Al     tau(   3) = (  0.0000000  0.0000000  0.2594438  )
         4        Al     tau(   4) = (  0.0000000  0.0000000  0.3181099  )
         5        Al     tau(   5) = (  0.2222222  0.1111112  0.3406750  )
         6        Al     tau(   6) = (  0.1111112  0.2222223  0.2222222  )
         7        O      tau(   7) = (  0.3243222  0.1111112  0.2408330  )
         8        O      tau(   8) = (  0.2222223  0.2132112  0.2408330  )
         9        O      tau(   9) = (  0.1201222  0.0090111  0.2408330  )
        10        O      tau(  10) = (  0.2188039  0.2280983  0.3380604  )
        11        O      tau(  11) = (  0.1052352  0.3240390  0.3380604  )
        12        O      tau(  12) = (  0.0092945  0.1145296  0.3380604  )
        13        O      tau(  13) = (  0.2297834  0.0008405  0.2898322  )
        14        O      tau(  14) = (  0.9991595  0.2289430  0.2898322  )
        15        O      tau(  15) = (  0.1043904  0.1035500  0.2898322  )
        16        Al     tau(  16) = (  0.2222222  0.4444445  0.2701144  )
        17        Al     tau(  17) = (  0.1111112  0.5555557  0.3122519  )
        18        Al     tau(  18) = ( -0.0000000  0.3333333  0.2594438  )
        19        Al     tau(  19) = ( -0.0000000  0.3333333  0.3181099  )
        20        Al     tau(  20) = (  0.2222222  0.4444445  0.3406750  )
        21        Al     tau(  21) = (  0.1111112  0.5555557  0.2222222  )
        22        O      tau(  22) = (  0.3243222  0.4444445  0.2408330  )
        23        O      tau(  23) = (  0.2222223  0.5465445  0.2408330  )
        24        O      tau(  24) = (  0.1201222  0.3423444  0.2408330  )
        25        O      tau(  25) = (  0.2188039  0.5614317  0.3380604  )
        26        O      tau(  26) = (  0.1052352  0.6573724  0.3380604  )
        27        O      tau(  27) = (  0.0092945  0.4478629  0.3380604  )
        28        O      tau(  28) = (  0.2297834  0.3341738  0.2898322  )
        29        O      tau(  29) = (  0.9991595  0.5622763  0.2898322  )
        30        O      tau(  30) = (  0.1043904  0.4368833  0.2898322  )
        31        Al     tau(  31) = (  0.2222222  0.7777778  0.2701144  )
        32        Al     tau(  32) = (  0.1111112  0.8888890  0.3122519  )
        33        Al     tau(  33) = (  0.0000000  0.6666667  0.2594438  )
        34        Al     tau(  34) = (  0.0000000  0.6666667  0.3181099  )
        35        Al     tau(  35) = (  0.2222222  0.7777778  0.3406750  )
        36        Al     tau(  36) = (  0.1111112  0.8888890  0.2222222  )
        37        O      tau(  37) = (  0.3243222  0.7777778  0.2408330  )
        38        O      tau(  38) = (  0.2222223  0.8798779  0.2408330  )
        39        O      tau(  39) = (  0.1201222  0.6756778  0.2408330  )
        40        O      tau(  40) = (  0.2188039  0.8947650  0.3380604  )
        41        O      tau(  41) = (  0.1052352  0.9907057  0.3380604  )
        42        O      tau(  42) = (  0.0092945  0.7811962  0.3380604  )
        43        O      tau(  43) = (  0.2297834  0.6675072  0.2898322  )
        44        O      tau(  44) = (  0.9991595  0.8956097  0.2898322  )
        45        O      tau(  45) = (  0.1043904  0.7702166  0.2898322  )
        46        Al     tau(  46) = (  0.5555556  0.1111112  0.2701144  )
        47        Al     tau(  47) = (  0.4444445  0.2222223  0.3122519  )
        48        Al     tau(  48) = (  0.3333333  0.0000000  0.2594438  )
        49        Al     tau(  49) = (  0.3333333  0.0000000  0.3181099  )
        50        Al     tau(  50) = (  0.5555556  0.1111112  0.3406750  )
        51        Al     tau(  51) = (  0.4444445  0.2222223  0.2222222  )
        52        O      tau(  52) = (  0.6576556  0.1111112  0.2408330  )
        53        O      tau(  53) = (  0.5555556  0.2132112  0.2408330  )
        54        O      tau(  54) = (  0.4534556  0.0090111  0.2408330  )
        55        O      tau(  55) = (  0.5521372  0.2280983  0.3380604  )
        56        O      tau(  56) = (  0.4385685  0.3240390  0.3380604  )
        57        O      tau(  57) = (  0.3426278  0.1145296  0.3380604  )
        58        O      tau(  58) = (  0.5631167  0.0008405  0.2898322  )
        59        O      tau(  59) = (  0.3324929  0.2289430  0.2898322  )
        60        O      tau(  60) = (  0.4377238  0.1035500  0.2898322  )
        61        Al     tau(  61) = (  0.5555556  0.4444445  0.2701144  )
        62        Al     tau(  62) = (  0.4444445  0.5555557  0.3122519  )
        63        Al     tau(  63) = (  0.3333333  0.3333333  0.2594438  )
        64        Al     tau(  64) = (  0.3333333  0.3333333  0.3181099  )
        65        Al     tau(  65) = (  0.5555556  0.4444445  0.3406750  )
        66        Al     tau(  66) = (  0.4444445  0.5555557  0.2222222  )
        67        O      tau(  67) = (  0.6576556  0.4444445  0.2408330  )
        68        O      tau(  68) = (  0.5555556  0.5465445  0.2408330  )
        69        O      tau(  69) = (  0.4534556  0.3423444  0.2408330  )
        70        O      tau(  70) = (  0.5521372  0.5614317  0.3380604  )
        71        O      tau(  71) = (  0.4385685  0.6573724  0.3380604  )
        72        O      tau(  72) = (  0.3426278  0.4478629  0.3380604  )
        73        O      tau(  73) = (  0.5631167  0.3341738  0.2898322  )
        74        O      tau(  74) = (  0.3324929  0.5622763  0.2898322  )
        75        O      tau(  75) = (  0.4377238  0.4368833  0.2898322  )
        76        Al     tau(  76) = (  0.5555556  0.7777778  0.2701144  )
        77        Al     tau(  77) = (  0.4444445  0.8888890  0.3122519  )
        78        Al     tau(  78) = (  0.3333333  0.6666667  0.2594438  )
        79        Al     tau(  79) = (  0.3333333  0.6666667  0.3181099  )
        80        Al     tau(  80) = (  0.5555556  0.7777778  0.3406750  )
        81        Al     tau(  81) = (  0.4444445  0.8888890  0.2222222  )
        82        O      tau(  82) = (  0.6576556  0.7777778  0.2408330  )
        83        O      tau(  83) = (  0.5555556  0.8798779  0.2408330  )
        84        O      tau(  84) = (  0.4534556  0.6756778  0.2408330  )
        85        O      tau(  85) = (  0.5521372  0.8947650  0.3380604  )
        86        O      tau(  86) = (  0.4385685  0.9907057  0.3380604  )
        87        O      tau(  87) = (  0.3426278  0.7811962  0.3380604  )
        88        O      tau(  88) = (  0.5631167  0.6675072  0.2898322  )
        89        O      tau(  89) = (  0.3324929  0.8956097  0.2898322  )
        90        O      tau(  90) = (  0.4377238  0.7702166  0.2898322  )
        91        Al     tau(  91) = (  0.8888889  0.1111112  0.2701144  )
        92        Al     tau(  92) = (  0.7777778  0.2222223  0.3122519  )
        93        Al     tau(  93) = (  0.6666667  0.0000000  0.2594438  )
        94        Al     tau(  94) = (  0.6666667  0.0000000  0.3181099  )
        95        Al     tau(  95) = (  0.8888889  0.1111112  0.3406750  )
        96        Al     tau(  96) = (  0.7777778  0.2222223  0.2222222  )
        97        O      tau(  97) = (  0.9909889  0.1111112  0.2408330  )
        98        O      tau(  98) = (  0.8888889  0.2132112  0.2408330  )
        99        O      tau(  99) = (  0.7867889  0.0090111  0.2408330  )
       100        O      tau( 100) = (  0.8854705  0.2280983  0.3380604  )
       101        O      tau( 101) = (  0.7719018  0.3240390  0.3380604  )
       102        O      tau( 102) = (  0.6759611  0.1145296  0.3380604  )
       103        O      tau( 103) = (  0.8964501  0.0008405  0.2898322  )
       104        O      tau( 104) = (  0.6658262  0.2289430  0.2898322  )
       105        O      tau( 105) = (  0.7710571  0.1035500  0.2898322  )
       106        Al     tau( 106) = (  0.8888889  0.4444445  0.2701144  )
       107        Al     tau( 107) = (  0.7777778  0.5555557  0.3122519  )
       108        Al     tau( 108) = (  0.6666667  0.3333333  0.2594438  )
       109        Al     tau( 109) = (  0.6666667  0.3333333  0.3181099  )
       110        Al     tau( 110) = (  0.8888889  0.4444445  0.3406750  )
       111        Al     tau( 111) = (  0.7777778  0.5555557  0.2222222  )
       112        O      tau( 112) = (  0.9909889  0.4444445  0.2408330  )
       113        O      tau( 113) = (  0.8888889  0.5465445  0.2408330  )
       114        O      tau( 114) = (  0.7867889  0.3423444  0.2408330  )
       115        O      tau( 115) = (  0.8854705  0.5614317  0.3380604  )
       116        O      tau( 116) = (  0.7719018  0.6573724  0.3380604  )
       117        O      tau( 117) = (  0.6759611  0.4478629  0.3380604  )
       118        O      tau( 118) = (  0.8964501  0.3341738  0.2898322  )
       119        O      tau( 119) = (  0.6658262  0.5622763  0.2898322  )
       120        O      tau( 120) = (  0.7710571  0.4368833  0.2898322  )
       121        Al     tau( 121) = (  0.8888889  0.7777778  0.2701144  )
       122        Al     tau( 122) = (  0.7777778  0.8888890  0.3122519  )
       123        Al     tau( 123) = (  0.6666667  0.6666667  0.2594438  )
       124        Al     tau( 124) = (  0.6666667  0.6666667  0.3181099  )
       125        Al     tau( 125) = (  0.8888889  0.7777778  0.3406750  )
       126        Al     tau( 126) = (  0.7777778  0.8888890  0.2222222  )
       127        O      tau( 127) = (  0.9909889  0.7777778  0.2408330  )
       128        O      tau( 128) = (  0.8888889  0.8798779  0.2408330  )
       129        O      tau( 129) = (  0.7867889  0.6756778  0.2408330  )
       130        O      tau( 130) = (  0.8854705  0.8947650  0.3380604  )
       131        O      tau( 131) = (  0.7719018  0.9907057  0.3380604  )
       132        O      tau( 132) = (  0.6759611  0.7811962  0.3380604  )
       133        O      tau( 133) = (  0.8964501  0.6675072  0.2898322  )
       134        O      tau( 134) = (  0.6658262  0.8956097  0.2898322  )
       135        O      tau( 135) = (  0.7710571  0.7702166  0.2898322  )
       136        Nb     tau( 136) = (  0.2222381  0.1111125  0.4419207  )
       137        Se     tau( 137) = (  0.3049623  0.2775024  0.4786620  )
       138        Se     tau( 138) = (  0.3057608  0.2772536  0.4053047  )
       139        Nb     tau( 139) = (  0.2214219  0.3595884  0.4414604  )
       140        Se     tau( 140) = (  0.3070245  0.5286707  0.4771545  )
       141        Se     tau( 141) = (  0.3023670  0.5248605  0.4042162  )
       142        Nb     tau( 142) = (  0.2208346  0.6103876  0.4408784  )
       143        Se     tau( 143) = (  0.3068557  0.7777497  0.4775040  )
       144        Se     tau( 144) = (  0.3012300  0.7774545  0.4046683  )
       145        Nb     tau( 145) = (  0.2213716  0.8618613  0.4419776  )
       146        Se     tau( 146) = (  0.3058358  0.0282005  0.4786741  )
       147        Se     tau( 147) = (  0.3047780  0.0275608  0.4053337  )
       148        Nb     tau( 148) = (  0.4714820  0.1119527  0.4414890  )
       149        Se     tau( 149) = (  0.5558448  0.2775738  0.4785800  )
       150        Se     tau( 150) = (  0.5556769  0.2787143  0.4052869  )
       151        Nb     tau( 151) = (  0.4713623  0.3594659  0.4419591  )
       152        Se     tau( 152) = (  0.5554922  0.5290740  0.4774816  )
       153        Se     tau( 153) = (  0.5558840  0.5237587  0.4046466  )
       154        Nb     tau( 154) = (  0.4714120  0.6091039  0.4399066  )
       155        Se     tau( 155) = (  0.5554823  0.7776591  0.4758496  )
       156        Se     tau( 156) = (  0.5555456  0.7777595  0.4036968  )
       157        Nb     tau( 157) = (  0.4710206  0.8618492  0.4399337  )
       158        Se     tau( 158) = (  0.5549894  0.0262412  0.4771766  )
       159        Se     tau( 159) = (  0.5558579  0.0311105  0.4042696  )
       160        Nb     tau( 160) = (  0.7229243  0.1125228  0.4409088  )
       161        Se     tau( 161) = (  0.8056139  0.2771742  0.4781517  )
       162        Se     tau( 162) = (  0.8067320  0.2789621  0.4048786  )
       163        Nb     tau( 163) = (  0.7221353  0.3608997  0.4414503  )
       164        Se     tau( 164) = (  0.8048064  0.5276986  0.4781559  )
       165        Se     tau( 165) = (  0.8055763  0.5267328  0.4048617  )
       166        Nb     tau( 166) = (  0.7228726  0.6103832  0.4408741  )
       167        Se     tau( 167) = (  0.8045386  0.7781593  0.4771811  )
       168        Se     tau( 168) = (  0.8085048  0.7774898  0.4042513  )
       169        Nb     tau( 169) = (  0.7241700  0.8622591  0.4399351  )
       170        Se     tau( 170) = (  0.8042308  0.0263580  0.4775091  )
       171        Se     tau( 171) = (  0.8096384  0.0322939  0.4046881  )
       172        Nb     tau( 172) = (  0.9738831  0.1119184  0.4419836  )
       173        Se     tau( 173) = (  0.0557260  0.2782691  0.4785766  )
       174        Se     tau( 174) = (  0.0546965  0.2770119  0.4052927  )
       175        Nb     tau( 175) = (  0.9725243  0.3613293  0.4414497  )
       176        Se     tau( 176) = (  0.0561692  0.5283499  0.4781632  )
       177        Se     tau( 177) = (  0.0544748  0.5278431  0.4048591  )
       178        Nb     tau( 178) = (  0.9720532  0.6111703  0.4414687  )
       179        Se     tau( 179) = (  0.0550372  0.7773497  0.4785994  )
       180        Se     tau( 180) = (  0.0563372  0.7777348  0.4052988  )
       181        Nb     tau( 181) = (  0.9737269  0.8617707  0.4414933  )
       182        Se     tau( 182) = (  0.0557051  0.0273544  0.4786732  )
       183        Se     tau( 183) = (  0.0561836  0.0286001  0.4053335  )
       184        B      tau( 184) = (  0.0717770  0.1972207  0.5531926  )
       185        B      tau( 185) = (  0.9104316  0.0035627  0.5531377  )
       186        B      tau( 186) = (  0.7491655  0.8100227  0.5532591  )
       187        B      tau( 187) = (  0.5878313  0.6164909  0.5529734  )
       188        B      tau( 188) = (  0.4265085  0.4229748  0.5531334  )
       189        B      tau( 189) = (  0.2652960  0.2294749  0.5531417  )
       190        B      tau( 190) = (  0.1039295  0.0358493  0.5531443  )
       191        B      tau( 191) = (  0.9426645  0.8423059  0.5537272  )
       192        B      tau( 192) = (  0.7814269  0.6487929  0.5534496  )
       193        B      tau( 193) = (  0.6200881  0.4552079  0.5529284  )
       194        B      tau( 194) = (  0.4588202  0.2616284  0.5531943  )
       195        B      tau( 195) = (  0.2975550  0.0681090  0.5531440  )
       196        B      tau( 196) = (  0.1361838  0.8745851  0.5531952  )
       197        B      tau( 197) = (  0.9749477  0.6811089  0.5534208  )
       198        B      tau( 198) = (  0.8136503  0.4875218  0.5530683  )
       199        B      tau( 199) = (  0.6522952  0.2938678  0.5534207  )
       200        B      tau( 200) = (  0.4910994  0.1003886  0.5537250  )
       201        B      tau( 201) = (  0.3298425  0.9068981  0.5531358  )
       202        B      tau( 202) = (  0.1684953  0.7133167  0.5529304  )
       203        B      tau( 203) = (  0.0072464  0.5197527  0.5530700  )
       204        B      tau( 204) = (  0.8458817  0.3261571  0.5530677  )
       205        B      tau( 205) = (  0.6846126  0.1326640  0.5534489  )
       206        B      tau( 206) = (  0.5233838  0.9391732  0.5532562  )
       207        B      tau( 207) = (  0.3620358  0.7455755  0.5529753  )
       208        B      tau( 208) = (  0.2007416  0.5519782  0.5534498  )
       209        B      tau( 209) = (  0.0395370  0.3584561  0.5534198  )
       210        B      tau( 210) = (  0.8781976  0.1649095  0.5529285  )
       211        B      tau( 211) = (  0.7169164  0.9713706  0.5529750  )
       212        B      tau( 212) = (  0.5555949  0.7778127  0.5528597  )
       213        B      tau( 213) = (  0.3942345  0.5842416  0.5532552  )
       214        B      tau( 214) = (  0.2330173  0.3907405  0.5537211  )
       215        N      tau( 215) = (  0.6308776  0.7347694  0.5529962  )
       216        N      tau( 216) = (  0.4695142  0.5412758  0.5531421  )
       217        N      tau( 217) = (  0.3082943  0.3478120  0.5535353  )
       218        N      tau( 218) = (  0.1470107  0.1541993  0.5531307  )
       219        N      tau( 219) = (  0.9855935  0.9605111  0.5535416  )
       220        N      tau( 220) = (  0.8244153  0.7670150  0.5537802  )
       221        N      tau( 221) = (  0.6631746  0.5735311  0.5530703  )
       222        N      tau( 222) = (  0.5017991  0.3799500  0.5529114  )
       223        N      tau( 223) = (  0.3405649  0.1863945  0.5531319  )
       224        N      tau( 224) = (  0.1792052  0.9928399  0.5531331  )
       225        N      tau( 225) = (  0.0179039  0.7993554  0.5537528  )
       226        N      tau( 226) = (  0.8567254  0.6058583  0.5535167  )
       227        N      tau( 227) = (  0.6953422  0.4121813  0.5530858  )
       228        N      tau( 228) = (  0.5340493  0.2185781  0.5537524  )
       229        N      tau( 229) = (  0.3728935  0.0251114  0.5535397  )
       230        N      tau( 230) = (  0.2115260  0.8316057  0.5529123  )
       231        N      tau( 231) = (  0.0502144  0.6380621  0.5530865  )
       232        N      tau( 232) = (  0.8889268  0.4444781  0.5529815  )
       233        N      tau( 233) = (  0.7275467  0.2508968  0.5535169  )
       234        N      tau( 234) = (  0.5663903  0.0574299  0.5537772  )
       235        N      tau( 235) = (  0.4051371  0.8638916  0.5531440  )
       236        N      tau( 236) = (  0.2437320  0.6702306  0.5530738  )
       237        N      tau( 237) = (  0.0825091  0.4766796  0.5535193  )
       238        N      tau( 238) = (  0.9212244  0.2831910  0.5530843  )
       239        N      tau( 239) = (  0.7598749  0.0896734  0.5530717  )
       240        N      tau( 240) = (  0.5986367  0.8961378  0.5529952  )
       241        N      tau( 241) = (  0.4372679  0.7025285  0.5529960  )
       242        N      tau( 242) = (  0.2759766  0.5089907  0.5537740  )
       243        N      tau( 243) = (  0.1148282  0.3155013  0.5537492  )
       244        N      tau( 244) = (  0.9534560  0.1218787  0.5529121  )
       245        N      tau( 245) = (  0.7921307  0.9282678  0.5531468  )

     number of k points=     5  Marzari-Vanderbilt smearing, width (Ry)=  0.0200
                       cart. coord. in units 2pi/alat
        k(    1) = (   0.0000000   0.0000000   0.0000000), wk =   0.1111111
        k(    2) = (   0.0000000   0.3849004   0.0000000), wk =   0.2222222
        k(    3) = (   0.3333333   0.1924502   0.0000000), wk =   0.2222222
        k(    4) = (   0.3333333   0.5773505   0.0000000), wk =   0.2222222
        k(    5) = (   0.3333333  -0.1924502   0.0000000), wk =   0.2222222

                       cryst. coord.
        k(    1) = (   0.0000000   0.0000000   0.0000000), wk =   0.1111111
        k(    2) = (   0.0000000   0.3333333   0.0000000), wk =   0.2222222
        k(    3) = (   0.3333333   0.0000000   0.0000000), wk =   0.2222222
        k(    4) = (   0.3333333   0.3333333   0.0000000), wk =   0.2222222
        k(    5) = (   0.3333333  -0.3333333   0.0000000), wk =   0.2222222

     Dense  grid:  7241989 G-vectors     FFT dimensions: ( 180, 180, 576)

     Smooth grid:  2560523 G-vectors     FFT dimensions: ( 125, 125, 384)

     Dynamical RAM for                 wfc:      61.04 MB

     Dynamical RAM for     wfc (w. buffer):     183.11 MB

     Dynamical RAM for           str. fact:      10.36 MB

     Dynamical RAM for           local pot:       0.00 MB

     Dynamical RAM for          nlocal pot:     227.36 MB

     Dynamical RAM for                qrad:       9.63 MB

     Dynamical RAM for          rho,v,vnew:      23.71 MB

     Dynamical RAM for               rhoin:       7.90 MB

     Dynamical RAM for            rho*nmix:     138.13 MB

     Dynamical RAM for           G-vectors:       6.78 MB

     Dynamical RAM for          h,s,v(r/c):       1.83 MB

     Dynamical RAM for          <psi|beta>:      36.38 MB

     Dynamical RAM for                 psi:     122.07 MB

     Dynamical RAM for                hpsi:     122.07 MB

     Dynamical RAM for                spsi:     122.07 MB

     Dynamical RAM for      wfcinit/wfcrot:     136.72 MB

     Dynamical RAM for           addusdens:      80.00 MB

     Dynamical RAM for          addusforce:     125.24 MB

     Dynamical RAM for         addusstress:      59.71 MB

     Estimated static dynamical RAM per process >     494.28 MB

     Estimated max dynamical RAM per process >       1.01 GB

     Estimated total dynamical RAM >     345.64 GB
 ----2D----2D----2D----2D----2D----2D----2D----2D----2D----2D----2D----2D
  The code is running with the 2D cutoff
  Please refer to:
  Sohier, T., Calandra, M., & Mauri, F. (2017), 
  Density functional perturbation theory for gated two-dimensional heterostructures:
  Theoretical developments and application to flexural phonons in graphene.
  Physical Review B, 96(7), 75448. https://doi.org/10.1103/PhysRevB.96.075448
 ----2D----2D----2D----2D----2D----2D----2D----2D----2D----2D----2D----2D
     Generating pointlists ...
     new r_m :   0.0491 (alat units)  1.3246 (a.u.) for type    1
     new r_m :   0.0491 (alat units)  1.3246 (a.u.) for type    2
     new r_m :   0.0757 (alat units)  2.0412 (a.u.) for type    3
     new r_m :   0.0757 (alat units)  2.0412 (a.u.) for type    4
     new r_m :   0.0427 (alat units)  1.1532 (a.u.) for type    5
     new r_m :   0.0427 (alat units)  1.1532 (a.u.) for type    6

     The initial density is read from file :
     ./REDACTED_PATH


     negative rho (up, down):  5.564E-03 5.564E-03
     Starting wfcs are 1076 randomized atomic wfcs
     Checking if some PAW data can be deallocated... 
       PAW data deallocated on  276 nodes for type:  1
       PAW data deallocated on  222 nodes for type:  2
       PAW data deallocated on  366 nodes for type:  3
       PAW data deallocated on  353 nodes for type:  5
       PAW data deallocated on  353 nodes for type:  6

     total cpu time spent up to now is       47.9 secs

     per-process dynamical memory:   699.0 Mb

     Self-consistent Calculation

     iteration #  1     ecut=    50.00 Ry     beta= 0.01
     Davidson diagonalization with overlap

---- Real-time Memory Report at c_bands before calling an iterative solver
          1044 MiB given to the printing process from OS
           682 MiB allocation reported by mallinfo(arena+hblkhd)
        221738 MiB available memory on the node where the printing process lives
------------------
     c_bands:  2 eigenvalues not converged
     ethr =  1.00E-05,  avg # of iterations = 33.2

     Threshold (ethr) on eigenvalues was too large:
     Diagonalizing with lowered threshold

     Davidson diagonalization with overlap

---- Real-time Memory Report at c_bands before calling an iterative solver
          1307 MiB given to the printing process from OS
           696 MiB allocation reported by mallinfo(arena+hblkhd)
        216778 MiB available memory on the node where the printing process lives
------------------
     ethr =  3.85E-09,  avg # of iterations = 13.0

     negative rho (up, down):  5.564E-03 5.564E-03

     total cpu time spent up to now is      864.4 secs

     total energy              =  -13507.57263689 Ry
     estimated scf accuracy    <       0.00000073 Ry

     total magnetization       =     0.01 Bohr mag/cell
     absolute magnetization    =     0.01 Bohr mag/cell

     iteration #  2     ecut=    50.00 Ry     beta= 0.01
     Davidson diagonalization with overlap

---- Real-time Memory Report at c_bands before calling an iterative solver
          1307 MiB given to the printing process from OS
           734 MiB allocation reported by mallinfo(arena+hblkhd)
        212862 MiB available memory on the node where the printing process lives
------------------
     ethr =  5.65E-11,  avg # of iterations =  6.2

     negative rho (up, down):  5.564E-03 5.564E-03

     total cpu time spent up to now is      996.0 secs

     total energy              =  -13507.57263720 Ry
     estimated scf accuracy    <       0.00000072 Ry

     total magnetization       =     0.01 Bohr mag/cell
     absolute magnetization    =     0.01 Bohr mag/cell

     iteration #  3     ecut=    50.00 Ry     beta= 0.01
     Davidson diagonalization with overlap

---- Real-time Memory Report at c_bands before calling an iterative solver
          1317 MiB given to the printing process from OS
           738 MiB allocation reported by mallinfo(arena+hblkhd)
        214087 MiB available memory on the node where the printing process lives
------------------
     ethr =  5.54E-11,  avg # of iterations =  1.0

     negative rho (up, down):  5.563E-03 5.563E-03

     total cpu time spent up to now is     1068.4 secs

     total energy              =  -13507.57263714 Ry
     estimated scf accuracy    <       0.00000068 Ry

     total magnetization       =     0.01 Bohr mag/cell
     absolute magnetization    =     0.01 Bohr mag/cell

     iteration #  4     ecut=    50.00 Ry     beta= 0.01
     Davidson diagonalization with overlap

---- Real-time Memory Report at c_bands before calling an iterative solver
          1323 MiB given to the printing process from OS
           742 MiB allocation reported by mallinfo(arena+hblkhd)
        213521 MiB available memory on the node where the printing process lives
------------------
     ethr =  5.26E-11,  avg # of iterations =  1.0

     negative rho (up, down):  5.563E-03 5.563E-03

     total cpu time spent up to now is     1139.4 secs

     total energy              =  -13507.57263717 Ry
     estimated scf accuracy    <       0.00000015 Ry

     total magnetization       =     0.01 Bohr mag/cell
     absolute magnetization    =     0.01 Bohr mag/cell

     iteration #  5     ecut=    50.00 Ry     beta= 0.01
     Davidson diagonalization with overlap

---- Real-time Memory Report at c_bands before calling an iterative solver
          1327 MiB given to the printing process from OS
           746 MiB allocation reported by mallinfo(arena+hblkhd)
        213418 MiB available memory on the node where the printing process lives
------------------
     ethr =  1.18E-11,  avg # of iterations =  1.0

     negative rho (up, down):  5.562E-03 5.562E-03

     total cpu time spent up to now is     1210.6 secs

     total energy              =  -13507.57263716 Ry
     estimated scf accuracy    <       0.00000015 Ry

     total magnetization       =     0.01 Bohr mag/cell
     absolute magnetization    =     0.01 Bohr mag/cell

     iteration #  6     ecut=    50.00 Ry     beta= 0.01
     Davidson diagonalization with overlap

---- Real-time Memory Report at c_bands before calling an iterative solver
          1331 MiB given to the printing process from OS
           749 MiB allocation reported by mallinfo(arena+hblkhd)
        212989 MiB available memory on the node where the printing process lives
------------------
     ethr =  1.16E-11,  avg # of iterations =  1.0

     negative rho (up, down):  5.561E-03 5.561E-03

     total cpu time spent up to now is     1283.2 secs

     total energy              =  -13507.57263714 Ry
     estimated scf accuracy    <       0.00000011 Ry

     total magnetization       =     0.01 Bohr mag/cell
     absolute magnetization    =     0.01 Bohr mag/cell

     iteration #  7     ecut=    50.00 Ry     beta= 0.01
     Davidson diagonalization with overlap

---- Real-time Memory Report at c_bands before calling an iterative solver
          1334 MiB given to the printing process from OS
           753 MiB allocation reported by mallinfo(arena+hblkhd)
        212972 MiB available memory on the node where the printing process lives
------------------
     ethr =  8.68E-12,  avg # of iterations =  1.0

     negative rho (up, down):  5.560E-03 5.560E-03

     total cpu time spent up to now is     1356.7 secs

     total energy              =  -13507.57263714 Ry
     estimated scf accuracy    <       0.00000006 Ry

     total magnetization       =     0.01 Bohr mag/cell
     absolute magnetization    =     0.01 Bohr mag/cell

     iteration #  8     ecut=    50.00 Ry     beta= 0.01
     Davidson diagonalization with overlap

---- Real-time Memory Report at c_bands before calling an iterative solver
          1338 MiB given to the printing process from OS
           757 MiB allocation reported by mallinfo(arena+hblkhd)
        212529 MiB available memory on the node where the printing process lives
------------------
     ethr =  4.97E-12,  avg # of iterations =  1.0

     negative rho (up, down):  5.560E-03 5.560E-03

     total cpu time spent up to now is     1431.4 secs

     total energy              =  -13507.57263714 Ry
     estimated scf accuracy    <       0.00000007 Ry

     total magnetization       =     0.01 Bohr mag/cell
     absolute magnetization    =     0.01 Bohr mag/cell

     iteration #  9     ecut=    50.00 Ry     beta= 0.01
     Davidson diagonalization with overlap

---- Real-time Memory Report at c_bands before calling an iterative solver
          1342 MiB given to the printing process from OS
           761 MiB allocation reported by mallinfo(arena+hblkhd)
        212343 MiB available memory on the node where the printing process lives
------------------
     ethr =  4.97E-12,  avg # of iterations =  2.0

     negative rho (up, down):  5.560E-03 5.561E-03

     total cpu time spent up to now is     1512.2 secs

     total energy              =  -13507.57263714 Ry
     estimated scf accuracy    <       0.00000002 Ry

     total magnetization       =     0.01 Bohr mag/cell
     absolute magnetization    =     0.01 Bohr mag/cell

     iteration # 10     ecut=    50.00 Ry     beta= 0.01
     Davidson diagonalization with overlap

---- Real-time Memory Report at c_bands before calling an iterative solver
          1345 MiB given to the printing process from OS
           764 MiB allocation reported by mallinfo(arena+hblkhd)
        212389 MiB available memory on the node where the printing process lives
------------------
     ethr =  1.41E-12,  avg # of iterations =  4.0

     negative rho (up, down):  5.561E-03 5.561E-03

     total cpu time spent up to now is     1610.4 secs

     total energy              =  -13507.57263715 Ry
     estimated scf accuracy    <       0.00000002 Ry

     total magnetization       =     0.01 Bohr mag/cell
     absolute magnetization    =     0.01 Bohr mag/cell

     iteration # 11     ecut=    50.00 Ry     beta= 0.01
     Davidson diagonalization with overlap

---- Real-time Memory Report at c_bands before calling an iterative solver
          1351 MiB given to the printing process from OS
           769 MiB allocation reported by mallinfo(arena+hblkhd)
        211782 MiB available memory on the node where the printing process lives
------------------
     ethr =  1.22E-12,  avg # of iterations =  1.0

     negative rho (up, down):  5.560E-03 5.561E-03

     total cpu time spent up to now is     1681.6 secs

     total energy              =  -13507.57263714 Ry
     estimated scf accuracy    <       0.00000001 Ry

     total magnetization       =     0.01 Bohr mag/cell
     absolute magnetization    =     0.01 Bohr mag/cell

     iteration # 12     ecut=    50.00 Ry     beta= 0.01
     Davidson diagonalization with overlap

---- Real-time Memory Report at c_bands before calling an iterative solver
          1355 MiB given to the printing process from OS
           772 MiB allocation reported by mallinfo(arena+hblkhd)
        211546 MiB available memory on the node where the printing process lives
------------------
     ethr =  1.15E-12,  avg # of iterations =  2.0

     negative rho (up, down):  5.560E-03 5.560E-03

     total cpu time spent up to now is     1772.4 secs

     total energy              =  -13507.57263716 Ry
     estimated scf accuracy    <          9.7E-09 Ry

     total magnetization       =     0.02 Bohr mag/cell
     absolute magnetization    =     0.02 Bohr mag/cell

     iteration # 13     ecut=    50.00 Ry     beta= 0.01
     Davidson diagonalization with overlap

---- Real-time Memory Report at c_bands before calling an iterative solver
          1359 MiB given to the printing process from OS
           776 MiB allocation reported by mallinfo(arena+hblkhd)
        211562 MiB available memory on the node where the printing process lives
------------------
     ethr =  7.52E-13,  avg # of iterations =  2.1

     negative rho (up, down):  5.560E-03 5.560E-03

     total cpu time spent up to now is     1861.2 secs

     total energy              =  -13507.57263716 Ry
     estimated scf accuracy    <       0.00000002 Ry

     total magnetization       =     0.02 Bohr mag/cell
     absolute magnetization    =     0.02 Bohr mag/cell

     iteration # 14     ecut=    50.00 Ry     beta= 0.01
     Davidson diagonalization with overlap

---- Real-time Memory Report at c_bands before calling an iterative solver
          1363 MiB given to the printing process from OS
           780 MiB allocation reported by mallinfo(arena+hblkhd)
        211337 MiB available memory on the node where the printing process lives
------------------
     ethr =  7.52E-13,  avg # of iterations =  1.0

     negative rho (up, down):  5.561E-03 5.561E-03

     total cpu time spent up to now is     1932.7 secs

     total energy              =  -13507.57263716 Ry
     estimated scf accuracy    <       0.00000001 Ry

     total magnetization       =     0.02 Bohr mag/cell
     absolute magnetization    =     0.02 Bohr mag/cell

     iteration # 15     ecut=    50.00 Ry     beta= 0.01
     Davidson diagonalization with overlap

---- Real-time Memory Report at c_bands before calling an iterative solver
          1366 MiB given to the printing process from OS
           783 MiB allocation reported by mallinfo(arena+hblkhd)
        210817 MiB available memory on the node where the printing process lives
------------------
     ethr =  7.52E-13,  avg # of iterations =  2.0

     negative rho (up, down):  5.561E-03 5.561E-03

     total cpu time spent up to now is     2015.2 secs

     total energy              =  -13507.57263718 Ry
     estimated scf accuracy    <          5.7E-09 Ry

     total magnetization       =     0.02 Bohr mag/cell
     absolute magnetization    =     0.02 Bohr mag/cell

     iteration # 16     ecut=    50.00 Ry     beta= 0.01
     Davidson diagonalization with overlap

---- Real-time Memory Report at c_bands before calling an iterative solver
          1370 MiB given to the printing process from OS
           787 MiB allocation reported by mallinfo(arena+hblkhd)
        210658 MiB available memory on the node where the printing process lives
------------------
     ethr =  4.43E-13,  avg # of iterations =  2.0

     negative rho (up, down):  5.561E-03 5.561E-03

     total cpu time spent up to now is     2097.6 secs

     total energy              =  -13507.57263718 Ry
     estimated scf accuracy    <          5.5E-09 Ry

     total magnetization       =     0.02 Bohr mag/cell
     absolute magnetization    =     0.02 Bohr mag/cell

     iteration # 17     ecut=    50.00 Ry     beta= 0.01
     Davidson diagonalization with overlap

---- Real-time Memory Report at c_bands before calling an iterative solver
          1374 MiB given to the printing process from OS
           791 MiB allocation reported by mallinfo(arena+hblkhd)
        210346 MiB available memory on the node where the printing process lives
------------------
     ethr =  4.26E-13,  avg # of iterations =  1.0

     negative rho (up, down):  5.564E-03 5.564E-03

     Magnetic moment per site  (integrated on atomic sphere of radius R)
     atom   1 (R=0.049)  charge=  0.2701  magn= -0.0000
     atom   2 (R=0.049)  charge=  0.2681  magn=  0.0000
     atom   3 (R=0.049)  charge=  0.2713  magn= -0.0000
     atom   4 (R=0.049)  charge=  0.2983  magn=  0.0000
     atom   5 (R=0.049)  charge=  0.3224  magn=  0.0000
     atom   6 (R=0.049)  charge=  0.2521  magn= -0.0000
     atom   7 (R=0.049)  charge=  4.7501  magn= -0.0000
     atom   8 (R=0.049)  charge=  4.7501  magn= -0.0000
     atom   9 (R=0.049)  charge=  4.7501  magn= -0.0000
     atom  10 (R=0.049)  charge=  4.8436  magn=  0.0000
     atom  11 (R=0.049)  charge=  4.8445  magn=  0.0000
     atom  12 (R=0.049)  charge=  4.8436  magn= -0.0000
     atom  13 (R=0.049)  charge=  4.8099  magn=  0.0000
     atom  14 (R=0.049)  charge=  4.8099  magn= -0.0000
     atom  15 (R=0.049)  charge=  4.8099  magn=  0.0000
     atom  16 (R=0.049)  charge=  0.2701  magn= -0.0000
     atom  17 (R=0.049)  charge=  0.2681  magn=  0.0000
     atom  18 (R=0.049)  charge=  0.2713  magn= -0.0000
     atom  19 (R=0.049)  charge=  0.2983  magn=  0.0000
     atom  20 (R=0.049)  charge=  0.3228  magn=  0.0000
     atom  21 (R=0.049)  charge=  0.2521  magn= -0.0000
     atom  22 (R=0.049)  charge=  4.7499  magn= -0.0000
     atom  23 (R=0.049)  charge=  4.7497  magn= -0.0000
     atom  24 (R=0.049)  charge=  4.7501  magn=  0.0000
     atom  25 (R=0.049)  charge=  4.8443  magn=  0.0000
     atom  26 (R=0.049)  charge=  4.8432  magn=  0.0000
     atom  27 (R=0.049)  charge=  4.8438  magn=  0.0000
     atom  28 (R=0.049)  charge=  4.8100  magn= -0.0000
     atom  29 (R=0.049)  charge=  4.8098  magn=  0.0000
     atom  30 (R=0.049)  charge=  4.8098  magn=  0.0000
     atom  31 (R=0.049)  charge=  0.2701  magn=  0.0000
     atom  32 (R=0.049)  charge=  0.2681  magn=  0.0000
     atom  33 (R=0.049)  charge=  0.2713  magn= -0.0000
     atom  34 (R=0.049)  charge=  0.2983  magn=  0.0000
     atom  35 (R=0.049)  charge=  0.3227  magn=  0.0000
     atom  36 (R=0.049)  charge=  0.2521  magn= -0.0000
     atom  37 (R=0.049)  charge=  4.7497  magn= -0.0000
     atom  38 (R=0.049)  charge=  4.7500  magn= -0.0000
     atom  39 (R=0.049)  charge=  4.7501  magn= -0.0000
     atom  40 (R=0.049)  charge=  4.8436  magn= -0.0000
     atom  41 (R=0.049)  charge=  4.8436  magn=  0.0000
     atom  42 (R=0.049)  charge=  4.8445  magn=  0.0000
     atom  43 (R=0.049)  charge=  4.8101  magn= -0.0000
     atom  44 (R=0.049)  charge=  4.8100  magn= -0.0000
     atom  45 (R=0.049)  charge=  4.8099  magn= -0.0000
     atom  46 (R=0.049)  charge=  0.2701  magn= -0.0000
     atom  47 (R=0.049)  charge=  0.2681  magn=  0.0000
     atom  48 (R=0.049)  charge=  0.2713  magn= -0.0000
     atom  49 (R=0.049)  charge=  0.2983  magn=  0.0000
     atom  50 (R=0.049)  charge=  0.3228  magn=  0.0000
     atom  51 (R=0.049)  charge=  0.2521  magn= -0.0000
     atom  52 (R=0.049)  charge=  4.7497  magn= -0.0000
     atom  53 (R=0.049)  charge=  4.7501  magn=  0.0000
     atom  54 (R=0.049)  charge=  4.7499  magn=  0.0000
     atom  55 (R=0.049)  charge=  4.8445  magn=  0.0000
     atom  56 (R=0.049)  charge=  4.8436  magn= -0.0000
     atom  57 (R=0.049)  charge=  4.8436  magn=  0.0000
     atom  58 (R=0.049)  charge=  4.8101  magn=  0.0000
     atom  59 (R=0.049)  charge=  4.8099  magn=  0.0000
     atom  60 (R=0.049)  charge=  4.8100  magn= -0.0000
     atom  61 (R=0.049)  charge=  0.2701  magn=  0.0000
     atom  62 (R=0.049)  charge=  0.2682  magn=  0.0000
     atom  63 (R=0.049)  charge=  0.2713  magn= -0.0000
     atom  64 (R=0.049)  charge=  0.2983  magn=  0.0000
     atom  65 (R=0.049)  charge=  0.3227  magn=  0.0000
     atom  66 (R=0.049)  charge=  0.2522  magn= -0.0000
     atom  67 (R=0.049)  charge=  4.7501  magn= -0.0000
     atom  68 (R=0.049)  charge=  4.7497  magn= -0.0000
     atom  69 (R=0.049)  charge=  4.7500  magn= -0.0000
     atom  70 (R=0.049)  charge=  4.8456  magn=  0.0000
     atom  71 (R=0.049)  charge=  4.8450  magn=  0.0000
     atom  72 (R=0.049)  charge=  4.8440  magn=  0.0000
     atom  73 (R=0.049)  charge=  4.8099  magn= -0.0000
     atom  74 (R=0.049)  charge=  4.8101  magn=  0.0000
     atom  75 (R=0.049)  charge=  4.8099  magn=  0.0000
     atom  76 (R=0.049)  charge=  0.2701  magn=  0.0000
     atom  77 (R=0.049)  charge=  0.2682  magn=  0.0000
     atom  78 (R=0.049)  charge=  0.2713  magn= -0.0000
     atom  79 (R=0.049)  charge=  0.2983  magn=  0.0000
     atom  80 (R=0.049)  charge=  0.3241  magn=  0.0000
     atom  81 (R=0.049)  charge=  0.2522  magn= -0.0000
     atom  82 (R=0.049)  charge=  4.7495  magn=  0.0000
     atom  83 (R=0.049)  charge=  4.7495  magn=  0.0000
     atom  84 (R=0.049)  charge=  4.7495  magn=  0.0000
     atom  85 (R=0.049)  charge=  4.8450  magn=  0.0000
     atom  86 (R=0.049)  charge=  4.8440  magn=  0.0000
     atom  87 (R=0.049)  charge=  4.8456  magn=  0.0000
     atom  88 (R=0.049)  charge=  4.8101  magn=  0.0000
     atom  89 (R=0.049)  charge=  4.8099  magn=  0.0000
     atom  90 (R=0.049)  charge=  4.8101  magn=  0.0000
     atom  91 (R=0.049)  charge=  0.2701  magn=  0.0000
     atom  92 (R=0.049)  charge=  0.2681  magn=  0.0000
     atom  93 (R=0.049)  charge=  0.2713  magn= -0.0000
     atom  94 (R=0.049)  charge=  0.2983  magn=  0.0000
     atom  95 (R=0.049)  charge=  0.3227  magn=  0.0000
     atom  96 (R=0.049)  charge=  0.2521  magn= -0.0000
     atom  97 (R=0.049)  charge=  4.7500  magn= -0.0000
     atom  98 (R=0.049)  charge=  4.7501  magn= -0.0000
     atom  99 (R=0.049)  charge=  4.7497  magn= -0.0000
     atom 100 (R=0.049)  charge=  4.8432  magn=  0.0000
     atom 101 (R=0.049)  charge=  4.8438  magn=  0.0000
     atom 102 (R=0.049)  charge=  4.8443  magn=  0.0000
     atom 103 (R=0.049)  charge=  4.8099  magn=  0.0000
     atom 104 (R=0.049)  charge=  4.8098  magn=  0.0000
     atom 105 (R=0.049)  charge=  4.8101  magn= -0.0000
     atom 106 (R=0.049)  charge=  0.2700  magn=  0.0000
     atom 107 (R=0.049)  charge=  0.2681  magn=  0.0000
     atom 108 (R=0.049)  charge=  0.2713  magn= -0.0000
     atom 109 (R=0.049)  charge=  0.2983  magn=  0.0000
     atom 110 (R=0.049)  charge=  0.3226  magn=  0.0000
     atom 111 (R=0.049)  charge=  0.2521  magn= -0.0000
     atom 112 (R=0.049)  charge=  4.7502  magn= -0.0000
     atom 113 (R=0.049)  charge=  4.7502  magn= -0.0000
     atom 114 (R=0.049)  charge=  4.7502  magn= -0.0000
     atom 115 (R=0.049)  charge=  4.8438  magn=  0.0000
     atom 116 (R=0.049)  charge=  4.8443  magn=  0.0000
     atom 117 (R=0.049)  charge=  4.8432  magn=  0.0000
     atom 118 (R=0.049)  charge=  4.8098  magn=  0.0000
     atom 119 (R=0.049)  charge=  4.8101  magn= -0.0000
     atom 120 (R=0.049)  charge=  4.8098  magn=  0.0000
     atom 121 (R=0.049)  charge=  0.2701  magn= -0.0000
     atom 122 (R=0.049)  charge=  0.2682  magn=  0.0000
     atom 123 (R=0.049)  charge=  0.2713  magn= -0.0000
     atom 124 (R=0.049)  charge=  0.2983  magn=  0.0000
     atom 125 (R=0.049)  charge=  0.3228  magn=  0.0000
     atom 126 (R=0.049)  charge=  0.2522  magn= -0.0000
     atom 127 (R=0.049)  charge=  4.7501  magn=  0.0000
     atom 128 (R=0.049)  charge=  4.7499  magn= -0.0000
     atom 129 (R=0.049)  charge=  4.7497  magn= -0.0000
     atom 130 (R=0.049)  charge=  4.8440  magn=  0.0000
     atom 131 (R=0.049)  charge=  4.8456  magn=  0.0000
     atom 132 (R=0.049)  charge=  4.8450  magn=  0.0000
     atom 133 (R=0.049)  charge=  4.8098  magn=  0.0000
     atom 134 (R=0.049)  charge=  4.8101  magn=  0.0000
     atom 135 (R=0.049)  charge=  4.8101  magn=  0.0000
     atom 136 (R=0.076)  charge= 10.0982  magn=  0.0008
     atom 137 (R=0.076)  charge=  4.0604  magn=  0.0000
     atom 138 (R=0.076)  charge=  4.0601  magn=  0.0000
     atom 139 (R=0.076)  charge= 10.0982  magn=  0.0007
     atom 140 (R=0.076)  charge=  4.0611  magn=  0.0000
     atom 141 (R=0.076)  charge=  4.0639  magn=  0.0000
     atom 142 (R=0.076)  charge= 10.0975  magn=  0.0007
     atom 143 (R=0.076)  charge=  4.0586  magn=  0.0000
     atom 144 (R=0.076)  charge=  4.0694  magn=  0.0000
     atom 145 (R=0.076)  charge= 10.1007  magn=  0.0007
     atom 146 (R=0.076)  charge=  4.0604  magn=  0.0000
     atom 147 (R=0.076)  charge=  4.0603  magn=  0.0000
     atom 148 (R=0.076)  charge= 10.0981  magn=  0.0007
     atom 149 (R=0.076)  charge=  4.0596  magn=  0.0000
     atom 150 (R=0.076)  charge=  4.0613  magn=  0.0000
     atom 151 (R=0.076)  charge= 10.1006  magn=  0.0007
     atom 152 (R=0.076)  charge=  4.0588  magn=  0.0000
     atom 153 (R=0.076)  charge=  4.0694  magn=  0.0000
     atom 154 (R=0.076)  charge= 10.0959  magn=  0.0008
     atom 155 (R=0.076)  charge=  4.0591  magn=  0.0000
     atom 156 (R=0.076)  charge=  4.0775  magn=  0.0000
     atom 157 (R=0.076)  charge= 10.0955  magn=  0.0008
     atom 158 (R=0.076)  charge=  4.0608  magn=  0.0000
     atom 159 (R=0.076)  charge=  4.0640  magn=  0.0000
     atom 160 (R=0.076)  charge= 10.0976  magn=  0.0007
     atom 161 (R=0.076)  charge=  4.0591  magn=  0.0000
     atom 162 (R=0.076)  charge=  4.0585  magn=  0.0000
     atom 163 (R=0.076)  charge= 10.0964  magn=  0.0006
     atom 164 (R=0.076)  charge=  4.0590  magn=  0.0000
     atom 165 (R=0.076)  charge=  4.0584  magn=  0.0000
     atom 166 (R=0.076)  charge= 10.0979  magn=  0.0007
     atom 167 (R=0.076)  charge=  4.0608  magn=  0.0000
     atom 168 (R=0.076)  charge=  4.0641  magn=  0.0000
     atom 169 (R=0.076)  charge= 10.0952  magn=  0.0008
     atom 170 (R=0.076)  charge=  4.0586  magn=  0.0000
     atom 171 (R=0.076)  charge=  4.0693  magn=  0.0000
     atom 172 (R=0.076)  charge= 10.1007  magn=  0.0007
     atom 173 (R=0.076)  charge=  4.0596  magn=  0.0000
     atom 174 (R=0.076)  charge=  4.0614  magn=  0.0000
     atom 175 (R=0.076)  charge= 10.0966  magn=  0.0006
     atom 176 (R=0.076)  charge=  4.0590  magn=  0.0000
     atom 177 (R=0.076)  charge=  4.0584  magn=  0.0000
     atom 178 (R=0.076)  charge= 10.0962  magn=  0.0006
     atom 179 (R=0.076)  charge=  4.0596  magn=  0.0000
     atom 180 (R=0.076)  charge=  4.0613  magn=  0.0000
     atom 181 (R=0.076)  charge= 10.0980  magn=  0.0007
     atom 182 (R=0.076)  charge=  4.0604  magn=  0.0000
     atom 183 (R=0.076)  charge=  4.0602  magn=  0.0000
     atom 184 (R=0.043)  charge=  0.8921  magn= -0.0000
     atom 185 (R=0.043)  charge=  0.8928  magn=  0.0000
     atom 186 (R=0.043)  charge=  0.8929  magn= -0.0000
     atom 187 (R=0.043)  charge=  0.8926  magn=  0.0000
     atom 188 (R=0.043)  charge=  0.8928  magn=  0.0000
     atom 189 (R=0.043)  charge=  0.8913  magn= -0.0000
     atom 190 (R=0.043)  charge=  0.8913  magn= -0.0000
     atom 191 (R=0.043)  charge=  0.8933  magn= -0.0000
     atom 192 (R=0.043)  charge=  0.8930  magn= -0.0000
     atom 193 (R=0.043)  charge=  0.8923  magn=  0.0000
     atom 194 (R=0.043)  charge=  0.8921  magn= -0.0000
     atom 195 (R=0.043)  charge=  0.8913  magn= -0.0000
     atom 196 (R=0.043)  charge=  0.8921  magn= -0.0000
     atom 197 (R=0.043)  charge=  0.8924  magn= -0.0000
     atom 198 (R=0.043)  charge=  0.8910  magn= -0.0000
     atom 199 (R=0.043)  charge=  0.8924  magn= -0.0000
     atom 200 (R=0.043)  charge=  0.8933  magn= -0.0000
     atom 201 (R=0.043)  charge=  0.8928  magn=  0.0000
     atom 202 (R=0.043)  charge=  0.8922  magn=  0.0000
     atom 203 (R=0.043)  charge=  0.8909  magn= -0.0000
     atom 204 (R=0.043)  charge=  0.8909  magn= -0.0000
     atom 205 (R=0.043)  charge=  0.8929  magn= -0.0000
     atom 206 (R=0.043)  charge=  0.8929  magn= -0.0000
     atom 207 (R=0.043)  charge=  0.8926  magn=  0.0000
     atom 208 (R=0.043)  charge=  0.8929  magn= -0.0000
     atom 209 (R=0.043)  charge=  0.8924  magn= -0.0000
     atom 210 (R=0.043)  charge=  0.8922  magn=  0.0000
     atom 211 (R=0.043)  charge=  0.8926  magn=  0.0000
     atom 212 (R=0.043)  charge=  0.8919  magn= -0.0000
     atom 213 (R=0.043)  charge=  0.8929  magn= -0.0000
     atom 214 (R=0.043)  charge=  0.8932  magn= -0.0000
     atom 215 (R=0.043)  charge=  2.9327  magn=  0.0000
     atom 216 (R=0.043)  charge=  2.9331  magn=  0.0000
     atom 217 (R=0.043)  charge=  2.9338  magn=  0.0000
     atom 218 (R=0.043)  charge=  2.9331  magn=  0.0000
     atom 219 (R=0.043)  charge=  2.9339  magn=  0.0000
     atom 220 (R=0.043)  charge=  2.9334  magn=  0.0000
     atom 221 (R=0.043)  charge=  2.9336  magn=  0.0000
     atom 222 (R=0.043)  charge=  2.9331  magn=  0.0000
     atom 223 (R=0.043)  charge=  2.9331  magn=  0.0000
     atom 224 (R=0.043)  charge=  2.9331  magn=  0.0000
     atom 225 (R=0.043)  charge=  2.9335  magn=  0.0000
     atom 226 (R=0.043)  charge=  2.9333  magn=  0.0000
     atom 227 (R=0.043)  charge=  2.9339  magn=  0.0000
     atom 228 (R=0.043)  charge=  2.9336  magn=  0.0000
     atom 229 (R=0.043)  charge=  2.9339  magn=  0.0000
     atom 230 (R=0.043)  charge=  2.9332  magn=  0.0000
     atom 231 (R=0.043)  charge=  2.9339  magn=  0.0000
     atom 232 (R=0.043)  charge=  2.9336  magn=  0.0000
     atom 233 (R=0.043)  charge=  2.9333  magn=  0.0000
     atom 234 (R=0.043)  charge=  2.9333  magn=  0.0000
     atom 235 (R=0.043)  charge=  2.9331  magn=  0.0000
     atom 236 (R=0.043)  charge=  2.9337  magn=  0.0000
     atom 237 (R=0.043)  charge=  2.9333  magn=  0.0000
     atom 238 (R=0.043)  charge=  2.9339  magn=  0.0000
     atom 239 (R=0.043)  charge=  2.9337  magn=  0.0000
     atom 240 (R=0.043)  charge=  2.9328  magn=  0.0000
     atom 241 (R=0.043)  charge=  2.9328  magn=  0.0000
     atom 242 (R=0.043)  charge=  2.9333  magn=  0.0000
     atom 243 (R=0.043)  charge=  2.9335  magn=  0.0000
     atom 244 (R=0.043)  charge=  2.9332  magn=  0.0000
     atom 245 (R=0.043)  charge=  2.9331  magn=  0.0000

     total cpu time spent up to now is     2168.4 secs

     End of self-consistent calculation

 ------ SPIN UP ------------


          k = 0.0000 0.0000 0.0000 (320189 PWs)   bands (ev):

   -59.7004 -59.6961 -59.6949 -59.6589 -59.6577 -59.6572 -59.6379 -59.6347
   -59.6343 -59.6336 -59.6307 -59.6302 -59.6260 -59.6257 -59.6250 -59.6137
   -35.8444 -35.8438 -35.8435 -35.8142 -35.8029 -35.7990 -35.7988 -35.7919
   -35.7918 -35.7564 -35.7560 -35.7478 -35.7428 -35.7400 -35.7398 -35.7304
   -35.7300 -35.7277 -35.7252 -35.7179 -35.7136 -35.7133 -35.7106 -35.7097
   -35.6850 -35.6846 -35.6845 -35.6814 -35.6786 -35.6779 -35.6712 -35.6673
   -35.6671 -35.6669 -35.6614 -35.6612 -35.6557 -35.6554 -35.6544 -35.6485
   -35.6482 -35.6473 -35.6442 -35.6416 -35.6414 -35.6359 -35.6346 -35.6345
   -23.8261 -23.3860 -23.3744 -23.3743 -23.3290 -23.3289 -23.3145 -22.7691
   -22.7691 -22.7521 -22.4747 -22.4746 -22.4349 -22.4190 -22.4189 -22.4033
   -22.3973 -22.3665 -22.3664 -22.3645 -22.1878 -22.1878 -22.1792 -22.1751
   -22.1751 -22.1709 -21.9310 -21.8975 -21.8477 -21.8357 -21.8265 -21.8264
   -21.8043 -21.8027 -21.8026 -21.7598 -21.7597 -21.7476 -21.7060 -21.7059
   -21.6950 -21.6855 -21.6855 -21.6629 -21.6554 -21.6553 -21.5608 -21.5606
   -21.5478 -21.5404 -21.5403 -21.5254 -21.5181 -21.5180 -21.4531 -21.4529
   -21.4528 -21.4054 -21.3972 -21.3970 -21.3520 -21.3519 -21.3216 -21.3208
   -21.3208 -21.3182 -21.3182 -21.3171 -21.2926 -21.2901 -21.2104 -21.2104
   -21.2068 -21.2068 -21.1187 -21.1171 -21.1171 -21.1158 -21.1155 -21.1154
   -20.9991 -20.9987 -20.9987 -20.9932 -20.9924 -20.9924 -20.9026 -20.9026
   -20.2652 -20.2650 -20.2646 -20.2646 -20.2642 -20.2642 -19.8244 -19.8238
   -19.8238 -19.8219 -19.8219 -19.8217 -18.9894 -18.9894 -18.9886 -18.9876
   -18.9866 -18.9866 -18.8140 -18.8139 -18.8135 -18.8135 -18.8111 -18.8101
   -17.8907 -17.3826 -17.3741 -17.3737 -17.3466 -17.3463 -17.3254 -16.8855
   -16.8319 -16.7975 -16.7517 -16.7516 -16.7156 -16.7153 -16.6975 -16.6964
   -16.6961 -16.6679 -16.6669 -16.6667 -16.6429 -16.6426 -16.6334 -16.4337
   -16.4176 -16.3985 -16.3984 -16.3708 -16.3707 -16.3680 -16.3619 -16.3618
   -13.0619 -13.0618 -13.0618 -13.0601 -13.0601 -13.0595 -12.2922 -12.2917
   -12.2905 -12.2905 -12.2899 -12.2898 -11.7403 -11.7403 -11.7400 -11.7367
   -11.7367 -11.7367 -11.1161 -11.0752 -11.0722 -11.0721 -11.0465 -11.0464
   -11.0405 -10.8276 -10.8274 -10.8268 -10.8268 -10.8263 -10.8263 -10.7380
   -10.7332 -10.7332 -10.7126 -10.7106 -10.7106 -10.5801 -10.5797 -10.5797
   -10.5780 -10.5780 -10.5773 -10.5630 -10.5550 -10.5347 -10.5346 -10.5330
   -10.5289 -10.5288 -10.5159 -10.5043 -10.5037 -10.5036 -10.3285 -10.3285
   -10.1177 -10.1177 -10.1028 -10.1028 -10.0928 -10.0756 -10.0755 -10.0658
   -10.0644 -10.0643  -9.8041  -9.7184  -9.7174  -9.7173  -9.6941  -9.6940
    -9.6939  -9.6356  -9.5652  -9.5629  -9.4927  -9.4927  -9.3409  -9.3409
    -9.3334  -9.2885  -9.2756  -9.2755  -9.2543  -9.2130  -9.2129  -9.2027
    -9.1560  -9.1560  -9.1504  -9.1504  -9.1503  -9.1480  -9.1480  -9.1479
    -9.0731  -9.0606  -9.0605  -9.0529  -9.0502  -9.0502  -8.9805  -8.9773
    -8.9719  -8.9717  -8.9717  -8.9668  -8.9667  -8.9457  -8.9456  -8.9456
    -8.9361  -8.8491  -8.8490  -8.6777  -8.6777  -8.6659  -8.6656  -8.6648
    -8.6550  -8.6544  -8.6477  -8.6004  -8.5935  -8.5934  -8.5934  -8.5900
    -8.5900  -8.5878  -8.5859  -8.5858  -8.5660  -8.5659  -8.5543  -8.5019
    -8.4919  -8.4919  -8.4914  -8.4888  -8.4887  -8.4887  -8.3858  -8.3856
    -8.3795  -8.3554  -8.3541  -8.3540  -8.3499  -8.3453  -8.3450  -8.3239
    -8.3174  -8.3172  -8.3048  -8.3047  -8.3032  -8.2631  -8.2577  -8.2574
    -8.1907  -8.1891  -8.1891  -8.1856  -8.1856  -8.1841  -8.1714  -8.1671
    -8.1671  -8.1640  -8.0943  -8.0942  -8.0860  -8.0798  -8.0798  -8.0735
    -8.0444  -8.0352  -8.0315  -8.0314  -7.9999  -7.9998  -7.9340  -7.8951
    -7.8948  -7.8894  -7.8722  -7.8721  -7.8604  -7.8553  -7.8466  -7.8465
    -7.8188  -7.8094  -7.8091  -7.7708  -7.7707  -7.7703  -7.7550  -7.7516
    -7.7514  -7.7358  -7.7356  -7.7182  -7.4510  -7.4407  -7.4405  -7.4342
    -7.4341  -7.4240  -7.4004  -7.3921  -7.3919  -7.3773  -7.3620  -7.3606
    -7.3606  -7.3510  -7.3508  -7.3357  -7.3284  -7.3283  -7.2297  -7.2296
    -7.2138  -7.2012  -7.1998  -7.1998  -7.1548  -7.1374  -7.1373  -7.0971
    -7.0971  -7.0952  -7.0710  -7.0708  -7.0707  -7.0340  -7.0138  -7.0101
    -7.0099  -7.0047  -7.0024  -7.0023  -7.0004  -6.9991  -6.9990  -6.9683
    -6.9681  -6.9613  -6.9529  -6.9529  -6.9320  -6.9238  -6.9218  -6.9217
    -6.8815  -6.8813  -6.8690  -6.8672  -6.8669  -6.8537  -6.8341  -6.8336
    -6.8287  -6.8279  -6.8279  -6.8168  -6.8135  -6.8131  -6.8047  -6.8033
    -6.8014  -6.7876  -6.7876  -6.7827  -6.7620  -6.7619  -6.7543  -6.6832
    -6.6831  -6.6830  -6.6624  -6.6623  -6.6566  -6.6450  -6.6449  -6.6291
    -6.6130  -6.6130  -6.5713  -6.5712  -6.5686  -6.5465  -6.5464  -6.5321
    -6.5319  -6.5277  -6.5074  -6.5074  -6.4757  -6.4756  -6.4560  -6.4476
    -6.4054  -6.3892  -6.3892  -6.3764  -6.3741  -6.3740  -6.3588  -6.3584
    -6.3550  -6.3413  -6.3411  -6.3339  -6.1956  -6.1956  -6.1452  -6.1197
    -6.1196  -6.1116  -6.1009  -6.1009  -6.1000  -6.0861  -6.0798  -6.0796
    -6.0671  -6.0671  -6.0536  -6.0394  -6.0394  -6.0332  -6.0331  -6.0181
    -6.0181  -6.0043  -5.9860  -5.9856  -5.9682  -5.9485  -5.9481  -5.9439
    -5.9392  -5.9389  -5.9321  -5.9133  -5.9131  -5.9129  -5.8893  -5.7636
    -5.7635  -5.7518  -5.7394  -5.7392  -5.7281  -5.6953  -5.6684  -5.6684
    -5.6516  -5.6238  -5.6145  -5.6144  -5.5842  -5.5842  -5.5584  -5.5582
    -5.5440  -5.5438  -5.5331  -5.5301  -5.5299  -5.4926  -5.4692  -5.4691
    -5.4583  -5.4505  -5.4505  -5.4354  -5.4287  -5.4081  -5.4080  -5.4000
    -5.3997  -5.3731  -5.3731  -5.3517  -5.3416  -5.3406  -5.3405  -5.3187
    -5.3185  -5.3101  -5.2917  -5.2511  -5.2507  -5.2155  -5.2154  -5.2030
    -5.1859  -5.1858  -5.1575  -5.1574  -5.1529  -5.1486  -5.1299  -5.1192
    -5.1153  -5.1152  -5.1086  -5.0983  -5.0981  -5.0731  -5.0596  -5.0596
    -5.0106  -4.9908  -4.9904  -4.9764  -4.9531  -4.9529  -4.7759  -4.7759
    -4.7738  -4.7716  -4.7716  -4.7683  -4.7628  -4.7628  -4.5721  -4.5720
    -4.5697  -4.5216  -4.5216  -4.4784  -4.4603  -4.4603  -4.4547  -4.4546
    -4.4543  -4.4360  -4.4357  -4.4310  -4.4190  -4.4129  -4.4123  -4.0654
    -3.7462  -3.7457  -3.7457  -3.7375  -3.7375  -3.7367  -3.5968  -3.5968
    -3.5782  -2.3182  -2.3176  -2.3169  -2.2857  -2.2852  -2.2811  -2.2518
    -2.2516  -2.2294  -2.0779  -2.0776  -2.0680  -2.0546  -2.0543  -2.0152
    -1.9675  -1.9631  -1.9593  -1.9582  -1.9390  -1.9389  -1.8866  -1.8861
    -1.8836  -1.8407  -1.8347  -1.7567  -1.7564  -1.7132  -1.7100  -1.7097
    -1.7041  -1.7036  -1.6758  -1.6755  -1.6737  -1.6566  -1.6562  -1.4838
    -1.4836  -1.3617  -1.3515  -1.2217  -1.2207  -1.2137  -1.2128  -1.0616
    -0.8457  -0.8445  -0.8438  -0.8413  -0.8373  -0.8370  -0.8139  -0.8138
    -0.8094  -0.4722  -0.4708  -0.4707  -0.4690  -0.4690  -0.4683  -0.3744
    -0.3376  -0.3211  -0.3204  -0.2842  -0.2767  -0.2765  -0.2591  -0.2590
    -0.0922   0.0711   0.0711   0.1278   0.1308   0.1325   0.1325   0.1417
     0.1418   0.1863   0.1866   0.3187   0.3209   0.3210   0.3555   0.3555
     0.3556   0.5640   0.5994   0.6011   0.6012   0.6031   0.6031   0.6033
     0.7031   0.8254   0.8259   0.9658   1.1075   1.3249   1.3253   1.3711
     1.3996   1.4282   1.4282   1.4472   1.5056   1.5057   1.5208   1.5377
     1.5849   1.5851   1.6185   1.6185   1.7062   1.7382   1.7384   1.8415
     1.8525   1.8526   1.8580   1.8589   1.8589   1.8758   1.9076   1.9076
     2.0895   2.1541   2.2211   2.2215   2.2387   2.2392   2.2426   2.3228

     occupation numbers 
     1.0000   1.0000   1.0000   1.0000   1.0000   1.0000   1.0000   1.0000
     1.0000   1.0000   1.0000   1.0000   1.0000   1.0000   1.0000   1.0000
     1.0000   1.0000   1.0000   1.0000   1.0000   1.0000   1.0000   1.0000
     1.0000   1.0000   1.0000   1.0000   1.0000   1.0000   1.0000   1.0000
     1.0000   1.0000   1.0000   1.0000   1.0000   1.0000   1.0000   1.0000
     1.0000   1.0000   1.0000   1.0000   1.0000   1.0000   1.0000   1.0000
     1.0000   1.0000   1.0000   1.0000   1.0000   1.0000   1.0000   1.0000
     1.0000   1.0000   1.0000   1.0000   1.0000   1.0000   1.0000   1.0000
     1.0000   1.0000   1.0000   1.0000   1.0000   1.0000   1.0000   1.0000
     1.0000   1.0000   1.0000   1.0000   1.0000   1.0000   1.0000   1.0000
     1.0000   1.0000   1.0000   1.0000   1.0000   1.0000   1.0000   1.0000
     1.0000   1.0000   1.0000   1.0000   1.0000   1.0000   1.0000   1.0000
     1.0000   1.0000   1.0000   1.0000   1.0000   1.0000   1.0000   1.0000
     1.0000   1.0000   1.0000   1.0000   1.0000   1.0000   1.0000   1.0000
     1.0000   1.0000   1.0000   1.0000   1.0000   1.0000   1.0000   1.0000
     1.0000   1.0000   1.0000   1.0000   1.0000   1.0000   1.0000   1.0000
     1.0000   1.0000   1.0000   1.0000   1.0000   1.0000   1.0000   1.0000
     1.0000   1.0000   1.0000   1.0000   1.0000   1.0000   1.0000   1.0000
     1.0000   1.0000   1.0000   1.0000   1.0000   1.0000   1.0000   1.0000
     1.0000   1.0000   1.0000   1.0000   1.0000   1.0000   1.0000   1.0000
     1.0000   1.0000   1.0000   1.0000   1.0000   1.0000   1.0000   1.0000
     1.0000   1.0000   1.0000   1.0000   1.0000   1.0000   1.0000   1.0000
     1.0000   1.0000   1.0000   1.0000   1.0000   1.0000   1.0000   1.0000
     1.0000   1.0000   1.0000   1.0000   1.0000   1.0000   1.0000   1.0000
     1.0000   1.0000   1.0000   1.0000   1.0000   1.0000   1.0000   1.0000
     1.0000   1.0000   1.0000   1.0000   1.0000   1.0000   1.0000   1.0000
     1.0000   1.0000   1.0000   1.0000   1.0000   1.0000   1.0000   1.0000
     1.0000   1.0000   1.0000   1.0000   1.0000   1.0000   1.0000   1.0000
     1.0000   1.0000   1.0000   1.0000   1.0000   1.0000   1.0000   1.0000
     1.0000   1.0000   1.0000   1.0000   1.0000   1.0000   1.0000   1.0000
     1.0000   1.0000   1.0000   1.0000   1.0000   1.0000   1.0000   1.0000
     1.0000   1.0000   1.0000   1.0000   1.0000   1.0000   1.0000   1.0000
     1.0000   1.0000   1.0000   1.0000   1.0000   1.0000   1.0000   1.0000
     1.0000   1.0000   1.0000   1.0000   1.0000   1.0000   1.0000   1.0000
     1.0000   1.0000   1.0000   1.0000   1.0000   1.0000   1.0000   1.0000
     1.0000   1.0000   1.0000   1.0000   1.0000   1.0000   1.0000   1.0000
     1.0000   1.0000   1.0000   1.0000   1.0000   1.0000   1.0000   1.0000
     1.0000   1.0000   1.0000   1.0000   1.0000   1.0000   1.0000   1.0000
     1.0000   1.0000   1.0000   1.0000   1.0000   1.0000   1.0000   1.0000
     1.0000   1.0000   1.0000   1.0000   1.0000   1.0000   1.0000   1.0000
     1.0000   1.0000   1.0000   1.0000   1.0000   1.0000   1.0000   1.0000
     1.0000   1.0000   1.0000   1.0000   1.0000   1.0000   1.0000   1.0000
     1.0000   1.0000   1.0000   1.0000   1.0000   1.0000   1.0000   1.0000
     1.0000   1.0000   1.0000   1.0000   1.0000   1.0000   1.0000   1.0000
     1.0000   1.0000   1.0000   1.0000   1.0000   1.0000   1.0000   1.0000
     1.0000   1.0000   1.0000   1.0000   1.0000   1.0000   1.0000   1.0000
     1.0000   1.0000   1.0000   1.0000   1.0000   1.0000   1.0000   1.0000
     1.0000   1.0000   1.0000   1.0000   1.0000   1.0000   1.0000   1.0000
     1.0000   1.0000   1.0000   1.0000   1.0000   1.0000   1.0000   1.0000
     1.0000   1.0000   1.0000   1.0000   1.0000   1.0000   1.0000   1.0000
     1.0000   1.0000   1.0000   1.0000   1.0000   1.0000   1.0000   1.0000
     1.0000   1.0000   1.0000   1.0000   1.0000   1.0000   1.0000   1.0000
     1.0000   1.0000   1.0000   1.0000   1.0000   1.0000   1.0000   1.0000
     1.0000   1.0000   1.0000   1.0000   1.0000   1.0000   1.0000   1.0000
     1.0000   1.0000   1.0000   1.0000   1.0000   1.0000   1.0000   1.0000
     1.0000   1.0000   1.0000   1.0000   1.0000   1.0000   1.0000   1.0000
     1.0000   1.0000   1.0000   1.0000   1.0000   1.0000   1.0000   1.0000
     1.0000   1.0000   1.0000   1.0000   1.0000   1.0000   1.0000   1.0000
     1.0000   1.0000   1.0000   1.0000   1.0000   1.0000   1.0000   1.0000
     1.0000   1.0000   1.0000   1.0000   1.0000   1.0000   1.0000   1.0000
     1.0000   1.0000   1.0000   1.0000   1.0000   1.0000   1.0000   1.0000
     1.0000   1.0000   1.0000   1.0000   1.0000   1.0000   1.0000   1.0000
     1.0000   1.0000   1.0000   1.0000   1.0000   1.0000   1.0000   1.0000
     1.0000   1.0000   1.0000   1.0000   1.0000   1.0000   1.0000   1.0000
     1.0000   1.0000   1.0000   1.0000   1.0000   1.0000   1.0000   1.0000
     1.0000   1.0000   1.0000   1.0000   1.0000   1.0000   1.0000   1.0000
     1.0000   1.0000   1.0000   1.0000   1.0000   1.0000   1.0000   1.0000
     1.0000   1.0000   1.0000   1.0000   1.0000   1.0000   1.0000   1.0000
     1.0000   1.0000   1.0000   1.0000   1.0000   1.0000   1.0000   1.0000
     1.0000   1.0000   1.0000   1.0000   1.0000   1.0000   1.0000   1.0000
     1.0000   1.0000   1.0000   1.0000   1.0000   1.0000   1.0000   1.0000
     1.0000   1.0000   1.0000   1.0000   1.0000   1.0000   1.0000   1.0000
     1.0000   1.0000   1.0000   1.0000   1.0000   1.0000   1.0000   1.0000
     1.0000   1.0000   1.0000   1.0001   1.0001   1.0001   1.0001   1.0001
     1.0001   1.0002   1.0002   1.0003   1.0004   1.0004   1.0004   1.0006
     1.0006   1.0007   1.0009   1.0018   1.0018   1.0032   1.0032   1.0038
     1.0049   1.0049   1.0071   1.0071   1.0076   1.0080   1.0101   1.0116
     1.0121   1.0121   1.0131   1.0148   1.0148   1.0195   1.0224   1.0224
     1.0354   1.0415   1.0417   1.0463   1.0543   1.0544   1.0709   1.0709
     1.0699   1.0688   1.0688   1.0670   1.0638   1.0638   0.7371   0.7368
     0.7309   0.5995   0.5995   0.4811   0.4334   0.4332   0.4190   0.4185
     0.4178   0.3722   0.3714   0.3601   0.3317   0.3180   0.3166   0.0060
     0.0000   0.0000   0.0000   0.0000   0.0000   0.0000   0.0000   0.0000
     0.0000   0.0000   0.0000   0.0000   0.0000   0.0000   0.0000   0.0000
     0.0000   0.0000   0.0000   0.0000   0.0000   0.0000   0.0000   0.0000
     0.0000   0.0000   0.0000   0.0000   0.0000   0.0000   0.0000   0.0000
     0.0000   0.0000   0.0000   0.0000   0.0000   0.0000   0.0000   0.0000
     0.0000   0.0000   0.0000   0.0000   0.0000   0.0000   0.0000   0.0000
     0.0000   0.0000   0.0000   0.0000   0.0000   0.0000   0.0000   0.0000
     0.0000   0.0000   0.0000   0.0000   0.0000   0.0000   0.0000   0.0000
     0.0000   0.0000   0.0000   0.0000   0.0000   0.0000   0.0000   0.0000
     0.0000   0.0000   0.0000   0.0000   0.0000   0.0000   0.0000   0.0000
     0.0000   0.0000   0.0000   0.0000   0.0000   0.0000   0.0000   0.0000
     0.0000   0.0000   0.0000   0.0000   0.0000   0.0000   0.0000   0.0000
     0.0000   0.0000   0.0000   0.0000   0.0000   0.0000   0.0000   0.0000
     0.0000   0.0000   0.0000   0.0000   0.0000   0.0000   0.0000   0.0000
     0.0000   0.0000   0.0000   0.0000   0.0000   0.0000   0.0000   0.0000
     0.0000   0.0000   0.0000   0.0000   0.0000   0.0000   0.0000   0.0000
     0.0000   0.0000   0.0000   0.0000   0.0000   0.0000   0.0000   0.0000
     0.0000   0.0000   0.0000   0.0000   0.0000   0.0000   0.0000   0.0000

          k = 0.0000 0.3849 0.0000 (319990 PWs)   bands (ev):

   -59.7004 -59.6961 -59.6949 -59.6589 -59.6576 -59.6572 -59.6375 -59.6358
   -59.6344 -59.6324 -59.6308 -59.6303 -59.6261 -59.6257 -59.6249 -59.6137
   -35.8411 -35.8395 -35.8368 -35.8171 -35.8069 -35.8015 -35.8008 -35.7868
   -35.7861 -35.7816 -35.7695 -35.7606 -35.7489 -35.7431 -35.7332 -35.7273
   -35.7262 -35.7250 -35.7170 -35.7107 -35.7100 -35.7062 -35.7003 -35.6929
   -35.6869 -35.6854 -35.6846 -35.6832 -35.6790 -35.6784 -35.6746 -35.6697
   -35.6690 -35.6636 -35.6611 -35.6599 -35.6591 -35.6562 -35.6537 -35.6498
   -35.6486 -35.6479 -35.6436 -35.6429 -35.6420 -35.6411 -35.6357 -35.6354
   -23.7719 -23.6088 -23.4523 -23.4448 -23.1702 -23.1644 -23.0431 -22.9253
   -22.9247 -22.7089 -22.5892 -22.5696 -22.4914 -22.4874 -22.4609 -22.4504
   -22.3947 -22.3936 -22.2095 -22.2044 -22.1918 -22.1877 -22.1011 -22.0334
   -22.0303 -21.9907 -21.9814 -21.9216 -21.9125 -21.9042 -21.8983 -21.8651
   -21.8321 -21.8320 -21.8256 -21.8045 -21.7739 -21.7635 -21.7445 -21.7158
   -21.7088 -21.6869 -21.6766 -21.6693 -21.6371 -21.6144 -21.5923 -21.5876
   -21.5786 -21.5254 -21.5147 -21.4963 -21.4846 -21.4784 -21.4693 -21.4569
   -21.4454 -21.4453 -21.4441 -21.4294 -21.4225 -21.4010 -21.3838 -21.3735
   -21.3682 -21.3513 -21.3380 -21.2613 -21.2226 -21.2209 -21.1796 -21.1767
   -21.1141 -21.1130 -21.0724 -21.0718 -21.0580 -21.0555 -21.0355 -21.0343
   -21.0220 -21.0036 -20.9972 -20.9946 -20.9551 -20.9280 -20.9180 -20.8916
   -20.7146 -20.7132 -20.3777 -20.2168 -20.2091 -20.0665 -20.0566 -19.7666
   -19.7552 -19.5359 -19.5053 -19.3130 -19.2965 -19.2424 -19.2386 -19.1487
   -19.0125 -18.9887 -18.9404 -18.8761 -18.8322 -18.7836 -18.5877 -18.5741
   -17.8240 -17.6339 -17.4658 -17.4560 -17.1796 -17.1724 -17.0594 -16.9614
   -16.9529 -16.8562 -16.8176 -16.7771 -16.7725 -16.7468 -16.7306 -16.6995
   -16.6975 -16.6911 -16.6119 -16.6095 -16.5772 -16.5759 -16.5289 -16.4857
   -16.4819 -16.4242 -16.4039 -16.3936 -16.3833 -16.3652 -16.3236 -16.3223
   -13.2322 -13.1086 -12.9869 -12.8427 -12.7454 -12.6561 -12.6203 -12.5016
   -12.4223 -12.3780 -12.3755 -12.3586 -12.2023 -12.0226 -11.8982 -11.6090
   -11.3651 -11.3053 -11.2804 -11.2361 -11.1291 -11.0766 -11.0496 -11.0086
   -11.0052 -11.0010 -10.9435 -10.9398 -10.9365 -10.8179 -10.7711 -10.7622
   -10.7343 -10.7233 -10.7191 -10.7158 -10.6894 -10.6279 -10.6250 -10.6086
   -10.6029 -10.5741 -10.5533 -10.5529 -10.5032 -10.4887 -10.4253 -10.4165
   -10.3945 -10.3526 -10.3201 -10.2879 -10.2678 -10.2393 -10.2248 -10.2054
   -10.1908 -10.1669 -10.1201 -10.0867 -10.0756 -10.0440 -10.0311  -9.9165
    -9.8431  -9.8090  -9.7749  -9.7713  -9.7209  -9.7073  -9.6792  -9.6308
    -9.6225  -9.6098  -9.5978  -9.5936  -9.5551  -9.4670  -9.4205  -9.4137
    -9.4062  -9.3576  -9.3543  -9.3386  -9.2950  -9.2888  -9.2762  -9.2693
    -9.2256  -9.2026  -9.1912  -9.1833  -9.1751  -9.1712  -9.1320  -9.1073
    -9.1065  -9.0995  -9.0849  -9.0768  -9.0628  -9.0557  -9.0396  -9.0214
    -8.9957  -8.9640  -8.9586  -8.9484  -8.9431  -8.9275  -8.9239  -8.9000
    -8.8784  -8.8683  -8.8438  -8.8327  -8.8313  -8.8145  -8.8041  -8.7887
    -8.7827  -8.7657  -8.7403  -8.7262  -8.7252  -8.7218  -8.7098  -8.7066
    -8.7023  -8.6750  -8.6388  -8.6232  -8.6184  -8.6037  -8.5623  -8.5571
    -8.5481  -8.5407  -8.5222  -8.5153  -8.5046  -8.4694  -8.4572  -8.4510
    -8.4481  -8.4364  -8.4300  -8.3940  -8.3379  -8.3357  -8.3259  -8.3141
    -8.3059  -8.2741  -8.2721  -8.2548  -8.2250  -8.2233  -8.2139  -8.2087
    -8.1846  -8.1626  -8.1589  -8.1464  -8.1424  -8.1364  -8.1304  -8.1133
    -8.1018  -8.0989  -8.0726  -8.0693  -8.0477  -8.0362  -7.9995  -7.9856
    -7.9684  -7.9587  -7.9348  -7.9247  -7.8881  -7.8676  -7.8645  -7.8599
    -7.8458  -7.8439  -7.8365  -7.8167  -7.8052  -7.7873  -7.7779  -7.7699
    -7.7611  -7.7371  -7.7275  -7.7187  -7.7046  -7.6863  -7.6760  -7.6563
    -7.6538  -7.6462  -7.6361  -7.6296  -7.6268  -7.5813  -7.5756  -7.5352
    -7.5282  -7.4984  -7.4726  -7.4526  -7.4378  -7.4324  -7.4272  -7.4202
    -7.3783  -7.3553  -7.3480  -7.3397  -7.3253  -7.3163  -7.3071  -7.2957
    -7.2905  -7.2888  -7.2741  -7.2520  -7.2463  -7.2229  -7.2183  -7.2070
    -7.1897  -7.1594  -7.1300  -7.1192  -7.1144  -7.1084  -7.1021  -7.0958
    -7.0894  -7.0621  -7.0473  -7.0402  -7.0042  -6.9974  -6.9900  -6.9841
    -6.9620  -6.9392  -6.9310  -6.9263  -6.9218  -6.9119  -6.9001  -6.8946
    -6.8911  -6.8795  -6.8762  -6.8670  -6.8622  -6.8554  -6.8518  -6.8431
    -6.8345  -6.8307  -6.8244  -6.8219  -6.8095  -6.7969  -6.7823  -6.7504
    -6.7413  -6.7341  -6.7066  -6.6939  -6.6744  -6.6610  -6.6540  -6.6512
    -6.6408  -6.6068  -6.5989  -6.5833  -6.5587  -6.5554  -6.5441  -6.5300
    -6.5205  -6.5166  -6.5149  -6.4892  -6.4791  -6.4734  -6.4709  -6.4549
    -6.4513  -6.4424  -6.4363  -6.4128  -6.4023  -6.3967  -6.3838  -6.3449
    -6.3331  -6.3258  -6.3225  -6.3190  -6.3143  -6.3015  -6.2956  -6.2904
    -6.2683  -6.2649  -6.2500  -6.2394  -6.2342  -6.2148  -6.2014  -6.1805
    -6.1673  -6.1480  -6.1426  -6.1375  -6.1229  -6.1176  -6.1117  -6.0936
    -6.0816  -6.0769  -6.0635  -6.0569  -6.0472  -6.0417  -6.0290  -6.0157
    -6.0063  -5.9921  -5.9877  -5.9819  -5.9727  -5.9668  -5.9525  -5.9452
    -5.9395  -5.9337  -5.9210  -5.9145  -5.8999  -5.8935  -5.8760  -5.8628
    -5.8435  -5.8239  -5.8106  -5.8031  -5.7951  -5.7593  -5.7516  -5.7423
    -5.7291  -5.7102  -5.6985  -5.6869  -5.6738  -5.6631  -5.6539  -5.6382
    -5.6272  -5.6177  -5.6061  -5.5981  -5.5927  -5.5775  -5.5547  -5.5394
    -5.5271  -5.5024  -5.4985  -5.4864  -5.4797  -5.4641  -5.4523  -5.4234
    -5.4180  -5.3909  -5.3776  -5.3690  -5.3587  -5.3385  -5.3257  -5.3164
    -5.3069  -5.3013  -5.2787  -5.2747  -5.2647  -5.2506  -5.2352  -5.2302
    -5.2197  -5.2117  -5.1851  -5.1701  -5.1552  -5.1441  -5.1281  -5.1046
    -5.0993  -5.0944  -5.0784  -5.0508  -5.0402  -5.0271  -4.9986  -4.9961
    -4.9646  -4.9036  -4.8759  -4.8533  -4.8396  -4.8076  -4.7985  -4.7919
    -4.7873  -4.7822  -4.7686  -4.7014  -4.6967  -4.6935  -4.6667  -4.6523
    -4.6407  -4.6169  -4.6111  -4.6033  -4.5933  -4.5490  -4.5071  -4.4979
    -4.4428  -4.4392  -4.3078  -4.2915  -4.1897  -4.1835  -4.0329  -4.0049
    -3.8685  -3.7881  -3.7876  -3.6831  -3.6747  -3.6743  -3.6470  -3.6178
    -3.6175  -2.6409  -2.6350  -2.3027  -2.2775  -2.2643  -2.2479  -2.2450
    -2.2063  -2.1984  -2.1692  -2.1449  -2.1327  -2.0967  -2.0814  -1.9984
    -1.9968  -1.9737  -1.9594  -1.9525  -1.9432  -1.9276  -1.9225  -1.9061
    -1.8889  -1.8846  -1.8678  -1.8531  -1.8482  -1.8423  -1.7866  -1.7743
    -1.7675  -1.6634  -1.6149  -1.6107  -1.5851  -1.5718  -1.5120  -1.5084
    -1.3440  -1.3344  -1.2905  -1.2253  -1.1300  -1.1182  -1.0560  -1.0542
    -0.9708  -0.9331  -0.8883  -0.8855  -0.8474  -0.8409  -0.7305  -0.5686
    -0.5606  -0.5404  -0.5400  -0.5250  -0.4510  -0.4356  -0.4310  -0.4094
    -0.3790  -0.3777  -0.3763  -0.3577  -0.3411  -0.3188  -0.2987  -0.2829
    -0.2129  -0.2120  -0.0227   0.0157   0.0448   0.0526   0.0911   0.1824
     0.2856   0.3000   0.3823   0.4792   0.6267   0.6312   0.6566   0.6930
     0.6980   0.7050   0.7259   0.7322   0.7425   0.7575   0.7992   0.8097
     0.8749   0.9025   0.9328   0.9686   1.0205   1.0328   1.1171   1.2214
     1.2286   1.2463   1.2565   1.2575   1.2717   1.3046   1.3223   1.3352
     1.4111   1.4138   1.5552   1.6616   1.6832   1.6920   1.6967   1.7004
     1.7366   1.7897   1.8250   1.8271   1.8517   1.8797   1.8958   1.9622
     2.0174   2.0537   2.0977   2.1361   2.1390   2.1412   2.1471   2.1627

     occupation numbers 
     1.0000   1.0000   1.0000   1.0000   1.0000   1.0000   1.0000   1.0000
     1.0000   1.0000   1.0000   1.0000   1.0000   1.0000   1.0000   1.0000
     1.0000   1.0000   1.0000   1.0000   1.0000   1.0000   1.0000   1.0000
     1.0000   1.0000   1.0000   1.0000   1.0000   1.0000   1.0000   1.0000
     1.0000   1.0000   1.0000   1.0000   1.0000   1.0000   1.0000   1.0000
     1.0000   1.0000   1.0000   1.0000   1.0000   1.0000   1.0000   1.0000
     1.0000   1.0000   1.0000   1.0000   1.0000   1.0000   1.0000   1.0000
     1.0000   1.0000   1.0000   1.0000   1.0000   1.0000   1.0000   1.0000
     1.0000   1.0000   1.0000   1.0000   1.0000   1.0000   1.0000   1.0000
     1.0000   1.0000   1.0000   1.0000   1.0000   1.0000   1.0000   1.0000
     1.0000   1.0000   1.0000   1.0000   1.0000   1.0000   1.0000   1.0000
     1.0000   1.0000   1.0000   1.0000   1.0000   1.0000   1.0000   1.0000
     1.0000   1.0000   1.0000   1.0000   1.0000   1.0000   1.0000   1.0000
     1.0000   1.0000   1.0000   1.0000   1.0000   1.0000   1.0000   1.0000
     1.0000   1.0000   1.0000   1.0000   1.0000   1.0000   1.0000   1.0000
     1.0000   1.0000   1.0000   1.0000   1.0000   1.0000   1.0000   1.0000
     1.0000   1.0000   1.0000   1.0000   1.0000   1.0000   1.0000   1.0000
     1.0000   1.0000   1.0000   1.0000   1.0000   1.0000   1.0000   1.0000
     1.0000   1.0000   1.0000   1.0000   1.0000   1.0000   1.0000   1.0000
     1.0000   1.0000   1.0000   1.0000   1.0000   1.0000   1.0000   1.0000
     1.0000   1.0000   1.0000   1.0000   1.0000   1.0000   1.0000   1.0000
     1.0000   1.0000   1.0000   1.0000   1.0000   1.0000   1.0000   1.0000
     1.0000   1.0000   1.0000   1.0000   1.0000   1.0000   1.0000   1.0000
     1.0000   1.0000   1.0000   1.0000   1.0000   1.0000   1.0000   1.0000
     1.0000   1.0000   1.0000   1.0000   1.0000   1.0000   1.0000   1.0000
     1.0000   1.0000   1.0000   1.0000   1.0000   1.0000   1.0000   1.0000
     1.0000   1.0000   1.0000   1.0000   1.0000   1.0000   1.0000   1.0000
     1.0000   1.0000   1.0000   1.0000   1.0000   1.0000   1.0000   1.0000
     1.0000   1.0000   1.0000   1.0000   1.0000   1.0000   1.0000   1.0000
     1.0000   1.0000   1.0000   1.0000   1.0000   1.0000   1.0000   1.0000
     1.0000   1.0000   1.0000   1.0000   1.0000   1.0000   1.0000   1.0000
     1.0000   1.0000   1.0000   1.0000   1.0000   1.0000   1.0000   1.0000
     1.0000   1.0000   1.0000   1.0000   1.0000   1.0000   1.0000   1.0000
     1.0000   1.0000   1.0000   1.0000   1.0000   1.0000   1.0000   1.0000
     1.0000   1.0000   1.0000   1.0000   1.0000   1.0000   1.0000   1.0000
     1.0000   1.0000   1.0000   1.0000   1.0000   1.0000   1.0000   1.0000
     1.0000   1.0000   1.0000   1.0000   1.0000   1.0000   1.0000   1.0000
     1.0000   1.0000   1.0000   1.0000   1.0000   1.0000   1.0000   1.0000
     1.0000   1.0000   1.0000   1.0000   1.0000   1.0000   1.0000   1.0000
     1.0000   1.0000   1.0000   1.0000   1.0000   1.0000   1.0000   1.0000
     1.0000   1.0000   1.0000   1.0000   1.0000   1.0000   1.0000   1.0000
     1.0000   1.0000   1.0000   1.0000   1.0000   1.0000   1.0000   1.0000
     1.0000   1.0000   1.0000   1.0000   1.0000   1.0000   1.0000   1.0000
     1.0000   1.0000   1.0000   1.0000   1.0000   1.0000   1.0000   1.0000
     1.0000   1.0000   1.0000   1.0000   1.0000   1.0000   1.0000   1.0000
     1.0000   1.0000   1.0000   1.0000   1.0000   1.0000   1.0000   1.0000
     1.0000   1.0000   1.0000   1.0000   1.0000   1.0000   1.0000   1.0000
     1.0000   1.0000   1.0000   1.0000   1.0000   1.0000   1.0000   1.0000
     1.0000   1.0000   1.0000   1.0000   1.0000   1.0000   1.0000   1.0000
     1.0000   1.0000   1.0000   1.0000   1.0000   1.0000   1.0000   1.0000
     1.0000   1.0000   1.0000   1.0000   1.0000   1.0000   1.0000   1.0000
     1.0000   1.0000   1.0000   1.0000   1.0000   1.0000   1.0000   1.0000
     1.0000   1.0000   1.0000   1.0000   1.0000   1.0000   1.0000   1.0000
     1.0000   1.0000   1.0000   1.0000   1.0000   1.0000   1.0000   1.0000
     1.0000   1.0000   1.0000   1.0000   1.0000   1.0000   1.0000   1.0000
     1.0000   1.0000   1.0000   1.0000   1.0000   1.0000   1.0000   1.0000
     1.0000   1.0000   1.0000   1.0000   1.0000   1.0000   1.0000   1.0000
     1.0000   1.0000   1.0000   1.0000   1.0000   1.0000   1.0000   1.0000
     1.0000   1.0000   1.0000   1.0000   1.0000   1.0000   1.0000   1.0000
     1.0000   1.0000   1.0000   1.0000   1.0000   1.0000   1.0000   1.0000
     1.0000   1.0000   1.0000   1.0000   1.0000   1.0000   1.0000   1.0000
     1.0000   1.0000   1.0000   1.0000   1.0000   1.0000   1.0000   1.0000
     1.0000   1.0000   1.0000   1.0000   1.0000   1.0000   1.0000   1.0000
     1.0000   1.0000   1.0000   1.0000   1.0000   1.0000   1.0000   1.0000
     1.0000   1.0000   1.0000   1.0000   1.0000   1.0000   1.0000   1.0000
     1.0000   1.0000   1.0000   1.0000   1.0000   1.0000   1.0000   1.0000
     1.0000   1.0000   1.0000   1.0000   1.0000   1.0000   1.0000   1.0000
     1.0000   1.0000   1.0000   1.0000   1.0000   1.0000   1.0000   1.0000
     1.0000   1.0000   1.0000   1.0000   1.0000   1.0000   1.0000   1.0000
     1.0000   1.0000   1.0000   1.0000   1.0000   1.0000   1.0000   1.0000
     1.0000   1.0000   1.0000   1.0000   1.0000   1.0000   1.0000   1.0000
     1.0000   1.0000   1.0000   1.0000   1.0000   1.0000   1.0000   1.0000
     1.0000   1.0000   1.0000   1.0000   1.0000   1.0000   1.0000   1.0000
     1.0000   1.0000   1.0000   1.0000   1.0000   1.0000   1.0000   1.0001
     1.0001   1.0001   1.0002   1.0002   1.0003   1.0004   1.0005   1.0006
     1.0007   1.0008   1.0012   1.0012   1.0015   1.0018   1.0023   1.0025
     1.0030   1.0033   1.0049   1.0060   1.0074   1.0085   1.0104   1.0137
     1.0146   1.0154   1.0184   1.0245   1.0271   1.0306   1.0390   1.0398
     1.0503   1.0707   1.0781   1.0820   1.0831   1.0811   1.0791   1.0772
     1.0757   1.0737   1.0671   1.0045   0.9980   0.9934   0.9504   0.9238
     0.9004   0.8485   0.8350   0.8163   0.7916   0.6751   0.5594   0.5340
     0.3887   0.3799   0.1321   0.1125   0.0354   0.0328   0.0036   0.0022
     0.0002   0.0000   0.0000   0.0000   0.0000   0.0000   0.0000   0.0000
     0.0000   0.0000   0.0000   0.0000   0.0000   0.0000   0.0000   0.0000
     0.0000   0.0000   0.0000   0.0000   0.0000   0.0000   0.0000   0.0000
     0.0000   0.0000   0.0000   0.0000   0.0000   0.0000   0.0000   0.0000
     0.0000   0.0000   0.0000   0.0000   0.0000   0.0000   0.0000   0.0000
     0.0000   0.0000   0.0000   0.0000   0.0000   0.0000   0.0000   0.0000
     0.0000   0.0000   0.0000   0.0000   0.0000   0.0000   0.0000   0.0000
     0.0000   0.0000   0.0000   0.0000   0.0000   0.0000   0.0000   0.0000
     0.0000   0.0000   0.0000   0.0000   0.0000   0.0000   0.0000   0.0000
     0.0000   0.0000   0.0000   0.0000   0.0000   0.0000   0.0000   0.0000
     0.0000   0.0000   0.0000   0.0000   0.0000   0.0000   0.0000   0.0000
     0.0000   0.0000   0.0000   0.0000   0.0000   0.0000   0.0000   0.0000
     0.0000   0.0000   0.0000   0.0000   0.0000   0.0000   0.0000   0.0000
     0.0000   0.0000   0.0000   0.0000   0.0000   0.0000   0.0000   0.0000
     0.0000   0.0000   0.0000   0.0000   0.0000   0.0000   0.0000   0.0000
     0.0000   0.0000   0.0000   0.0000   0.0000   0.0000   0.0000   0.0000
     0.0000   0.0000   0.0000   0.0000   0.0000   0.0000   0.0000   0.0000
     0.0000   0.0000   0.0000   0.0000   0.0000   0.0000   0.0000   0.0000

          k = 0.3333 0.1925 0.0000 (319990 PWs)   bands (ev):

   -59.7004 -59.6961 -59.6949 -59.6589 -59.6577 -59.6572 -59.6376 -59.6358
   -59.6343 -59.6326 -59.6308 -59.6303 -59.6260 -59.6258 -59.6249 -59.6137
   -35.8408 -35.8399 -35.8367 -35.8170 -35.8071 -35.8013 -35.8008 -35.7868
   -35.7863 -35.7815 -35.7694 -35.7606 -35.7490 -35.7433 -35.7331 -35.7268
   -35.7263 -35.7250 -35.7174 -35.7109 -35.7098 -35.7059 -35.7005 -35.6929
   -35.6869 -35.6853 -35.6848 -35.6832 -35.6792 -35.6781 -35.6746 -35.6697
   -35.6689 -35.6636 -35.6610 -35.6599 -35.6591 -35.6563 -35.6538 -35.6499
   -35.6484 -35.6479 -35.6437 -35.6429 -35.6419 -35.6411 -35.6357 -35.6354
   -23.7719 -23.6088 -23.4523 -23.4448 -23.1702 -23.1644 -23.0431 -22.9253
   -22.9247 -22.7089 -22.5891 -22.5696 -22.4913 -22.4875 -22.4608 -22.4504
   -22.3948 -22.3936 -22.2095 -22.2044 -22.1917 -22.1878 -22.1011 -22.0334
   -22.0304 -21.9907 -21.9814 -21.9216 -21.9125 -21.9042 -21.8983 -21.8651
   -21.8321 -21.8320 -21.8256 -21.8046 -21.7738 -21.7635 -21.7445 -21.7158
   -21.7087 -21.6870 -21.6766 -21.6692 -21.6371 -21.6144 -21.5923 -21.5875
   -21.5785 -21.5254 -21.5146 -21.4964 -21.4845 -21.4784 -21.4693 -21.4570
   -21.4455 -21.4453 -21.4440 -21.4294 -21.4225 -21.4010 -21.3838 -21.3735
   -21.3682 -21.3512 -21.3381 -21.2613 -21.2226 -21.2209 -21.1796 -21.1767
   -21.1141 -21.1130 -21.0724 -21.0718 -21.0580 -21.0555 -21.0355 -21.0343
   -21.0220 -21.0036 -20.9972 -20.9946 -20.9551 -20.9280 -20.9180 -20.8916
   -20.7146 -20.7132 -20.3777 -20.2168 -20.2091 -20.0665 -20.0566 -19.7666
   -19.7552 -19.5359 -19.5053 -19.3130 -19.2965 -19.2424 -19.2385 -19.1487
   -19.0125 -18.9887 -18.9404 -18.8761 -18.8322 -18.7836 -18.5877 -18.5741
   -17.8240 -17.6339 -17.4658 -17.4560 -17.1794 -17.1725 -17.0595 -16.9613
   -16.9529 -16.8561 -16.8176 -16.7773 -16.7725 -16.7470 -16.7305 -16.6995
   -16.6974 -16.6909 -16.6118 -16.6096 -16.5773 -16.5759 -16.5289 -16.4858
   -16.4819 -16.4241 -16.4037 -16.3934 -16.3835 -16.3654 -16.3235 -16.3223
   -13.2322 -13.1086 -12.9869 -12.8427 -12.7454 -12.6561 -12.6203 -12.5016
   -12.4223 -12.3780 -12.3755 -12.3586 -12.2023 -12.0226 -11.8982 -11.6090
   -11.3651 -11.3053 -11.2804 -11.2361 -11.1291 -11.0766 -11.0496 -11.0086
   -11.0052 -11.0010 -10.9434 -10.9398 -10.9365 -10.8179 -10.7711 -10.7622
   -10.7343 -10.7233 -10.7191 -10.7159 -10.6894 -10.6279 -10.6250 -10.6086
   -10.6029 -10.5741 -10.5533 -10.5529 -10.5032 -10.4887 -10.4253 -10.4165
   -10.3945 -10.3526 -10.3201 -10.2879 -10.2678 -10.2393 -10.2248 -10.2054
   -10.1908 -10.1669 -10.1201 -10.0868 -10.0756 -10.0440 -10.0311  -9.9165
    -9.8431  -9.8090  -9.7749  -9.7713  -9.7209  -9.7073  -9.6792  -9.6308
    -9.6226  -9.6098  -9.5979  -9.5936  -9.5552  -9.4670  -9.4205  -9.4137
    -9.4062  -9.3576  -9.3543  -9.3386  -9.2951  -9.2889  -9.2762  -9.2693
    -9.2256  -9.2026  -9.1913  -9.1833  -9.1749  -9.1712  -9.1320  -9.1073
    -9.1065  -9.0995  -9.0849  -9.0768  -9.0628  -9.0557  -9.0395  -9.0214
    -8.9958  -8.9642  -8.9586  -8.9484  -8.9430  -8.9275  -8.9239  -8.9000
    -8.8784  -8.8683  -8.8438  -8.8327  -8.8313  -8.8145  -8.8041  -8.7887
    -8.7827  -8.7657  -8.7403  -8.7263  -8.7251  -8.7218  -8.7098  -8.7066
    -8.7022  -8.6750  -8.6388  -8.6232  -8.6186  -8.6038  -8.5622  -8.5568
    -8.5480  -8.5407  -8.5222  -8.5153  -8.5046  -8.4694  -8.4574  -8.4510
    -8.4481  -8.4363  -8.4300  -8.3939  -8.3379  -8.3356  -8.3262  -8.3140
    -8.3061  -8.2741  -8.2720  -8.2547  -8.2250  -8.2232  -8.2139  -8.2087
    -8.1846  -8.1626  -8.1589  -8.1463  -8.1424  -8.1364  -8.1305  -8.1133
    -8.1019  -8.0989  -8.0726  -8.0693  -8.0476  -8.0362  -7.9995  -7.9858
    -7.9684  -7.9586  -7.9345  -7.9248  -7.8880  -7.8676  -7.8644  -7.8599
    -7.8458  -7.8439  -7.8366  -7.8167  -7.8052  -7.7874  -7.7779  -7.7698
    -7.7611  -7.7371  -7.7274  -7.7187  -7.7046  -7.6862  -7.6757  -7.6563
    -7.6538  -7.6463  -7.6360  -7.6299  -7.6267  -7.5811  -7.5755  -7.5351
    -7.5281  -7.4984  -7.4726  -7.4526  -7.4379  -7.4324  -7.4272  -7.4202
    -7.3783  -7.3554  -7.3479  -7.3397  -7.3254  -7.3164  -7.3071  -7.2957
    -7.2905  -7.2889  -7.2742  -7.2521  -7.2465  -7.2230  -7.2185  -7.2070
    -7.1897  -7.1594  -7.1300  -7.1192  -7.1144  -7.1085  -7.1022  -7.0959
    -7.0893  -7.0621  -7.0475  -7.0404  -7.0042  -6.9975  -6.9900  -6.9840
    -6.9621  -6.9392  -6.9310  -6.9262  -6.9219  -6.9117  -6.9002  -6.8946
    -6.8909  -6.8795  -6.8763  -6.8669  -6.8620  -6.8552  -6.8518  -6.8426
    -6.8345  -6.8306  -6.8244  -6.8221  -6.8093  -6.7971  -6.7822  -6.7504
    -6.7415  -6.7340  -6.7066  -6.6940  -6.6743  -6.6608  -6.6540  -6.6513
    -6.6408  -6.6068  -6.5990  -6.5834  -6.5589  -6.5554  -6.5442  -6.5300
    -6.5205  -6.5166  -6.5149  -6.4892  -6.4791  -6.4733  -6.4709  -6.4549
    -6.4513  -6.4424  -6.4362  -6.4127  -6.4022  -6.3968  -6.3838  -6.3448
    -6.3333  -6.3258  -6.3224  -6.3190  -6.3143  -6.3015  -6.2956  -6.2906
    -6.2683  -6.2648  -6.2500  -6.2391  -6.2342  -6.2148  -6.2013  -6.1805
    -6.1673  -6.1481  -6.1425  -6.1375  -6.1229  -6.1176  -6.1118  -6.0936
    -6.0815  -6.0769  -6.0636  -6.0570  -6.0473  -6.0416  -6.0290  -6.0157
    -6.0063  -5.9919  -5.9878  -5.9820  -5.9726  -5.9669  -5.9524  -5.9452
    -5.9396  -5.9337  -5.9210  -5.9144  -5.8998  -5.8935  -5.8760  -5.8628
    -5.8435  -5.8239  -5.8107  -5.8031  -5.7952  -5.7593  -5.7515  -5.7423
    -5.7291  -5.7102  -5.6984  -5.6869  -5.6739  -5.6630  -5.6539  -5.6383
    -5.6272  -5.6176  -5.6061  -5.5981  -5.5928  -5.5776  -5.5547  -5.5393
    -5.5272  -5.5025  -5.4984  -5.4864  -5.4796  -5.4641  -5.4525  -5.4235
    -5.4181  -5.3909  -5.3775  -5.3689  -5.3587  -5.3385  -5.3257  -5.3164
    -5.3070  -5.3014  -5.2786  -5.2746  -5.2647  -5.2507  -5.2351  -5.2302
    -5.2197  -5.2118  -5.1851  -5.1701  -5.1552  -5.1441  -5.1281  -5.1047
    -5.0992  -5.0943  -5.0784  -5.0507  -5.0401  -5.0270  -4.9985  -4.9961
    -4.9648  -4.9036  -4.8759  -4.8533  -4.8395  -4.8076  -4.7985  -4.7919
    -4.7873  -4.7822  -4.7687  -4.7014  -4.6971  -4.6936  -4.6667  -4.6526
    -4.6408  -4.6170  -4.6112  -4.6032  -4.5931  -4.5490  -4.5071  -4.4982
    -4.4422  -4.4391  -4.3078  -4.2912  -4.1898  -4.1835  -4.0330  -4.0049
    -3.8685  -3.7881  -3.7876  -3.6831  -3.6747  -3.6743  -3.6470  -3.6178
    -3.6175  -2.6410  -2.6349  -2.3032  -2.2772  -2.2640  -2.2482  -2.2451
    -2.2063  -2.1980  -2.1692  -2.1446  -2.1330  -2.0969  -2.0815  -1.9987
    -1.9965  -1.9732  -1.9598  -1.9530  -1.9438  -1.9276  -1.9226  -1.9063
    -1.8880  -1.8840  -1.8672  -1.8530  -1.8486  -1.8427  -1.7868  -1.7745
    -1.7670  -1.6630  -1.6150  -1.6103  -1.5840  -1.5730  -1.5117  -1.5084
    -1.3441  -1.3348  -1.2908  -1.2254  -1.1301  -1.1179  -1.0560  -1.0543
    -0.9708  -0.9330  -0.8881  -0.8859  -0.8474  -0.8410  -0.7305  -0.5683
    -0.5606  -0.5404  -0.5400  -0.5251  -0.4505  -0.4354  -0.4310  -0.4091
    -0.3789  -0.3777  -0.3763  -0.3579  -0.3412  -0.3186  -0.2990  -0.2833
    -0.2129  -0.2120  -0.0228   0.0157   0.0447   0.0526   0.0912   0.1824
     0.2856   0.3000   0.3823   0.4792   0.6267   0.6312   0.6567   0.6930
     0.6980   0.7050   0.7259   0.7322   0.7425   0.7575   0.7992   0.8098
     0.8747   0.9028   0.9328   0.9686   1.0204   1.0329   1.1169   1.2215
     1.2285   1.2462   1.2565   1.2575   1.2718   1.3047   1.3222   1.3353
     1.4111   1.4138   1.5550   1.6615   1.6832   1.6920   1.6968   1.7004
     1.7367   1.7896   1.8250   1.8271   1.8518   1.8798   1.8958   1.9622
     2.0173   2.0538   2.0976   2.1360   2.1389   2.1411   2.1470   2.1626

     occupation numbers 
     1.0000   1.0000   1.0000   1.0000   1.0000   1.0000   1.0000   1.0000
     1.0000   1.0000   1.0000   1.0000   1.0000   1.0000   1.0000   1.0000
     1.0000   1.0000   1.0000   1.0000   1.0000   1.0000   1.0000   1.0000
     1.0000   1.0000   1.0000   1.0000   1.0000   1.0000   1.0000   1.0000
     1.0000   1.0000   1.0000   1.0000   1.0000   1.0000   1.0000   1.0000
     1.0000   1.0000   1.0000   1.0000   1.0000   1.0000   1.0000   1.0000
     1.0000   1.0000   1.0000   1.0000   1.0000   1.0000   1.0000   1.0000
     1.0000   1.0000   1.0000   1.0000   1.0000   1.0000   1.0000   1.0000
     1.0000   1.0000   1.0000   1.0000   1.0000   1.0000   1.0000   1.0000
     1.0000   1.0000   1.0000   1.0000   1.0000   1.0000   1.0000   1.0000
     1.0000   1.0000   1.0000   1.0000   1.0000   1.0000   1.0000   1.0000
     1.0000   1.0000   1.0000   1.0000   1.0000   1.0000   1.0000   1.0000
     1.0000   1.0000   1.0000   1.0000   1.0000   1.0000   1.0000   1.0000
     1.0000   1.0000   1.0000   1.0000   1.0000   1.0000   1.0000   1.0000
     1.0000   1.0000   1.0000   1.0000   1.0000   1.0000   1.0000   1.0000
     1.0000   1.0000   1.0000   1.0000   1.0000   1.0000   1.0000   1.0000
     1.0000   1.0000   1.0000   1.0000   1.0000   1.0000   1.0000   1.0000
     1.0000   1.0000   1.0000   1.0000   1.0000   1.0000   1.0000   1.0000
     1.0000   1.0000   1.0000   1.0000   1.0000   1.0000   1.0000   1.0000
     1.0000   1.0000   1.0000   1.0000   1.0000   1.0000   1.0000   1.0000
     1.0000   1.0000   1.0000   1.0000   1.0000   1.0000   1.0000   1.0000
     1.0000   1.0000   1.0000   1.0000   1.0000   1.0000   1.0000   1.0000
     1.0000   1.0000   1.0000   1.0000   1.0000   1.0000   1.0000   1.0000
     1.0000   1.0000   1.0000   1.0000   1.0000   1.0000   1.0000   1.0000
     1.0000   1.0000   1.0000   1.0000   1.0000   1.0000   1.0000   1.0000
     1.0000   1.0000   1.0000   1.0000   1.0000   1.0000   1.0000   1.0000
     1.0000   1.0000   1.0000   1.0000   1.0000   1.0000   1.0000   1.0000
     1.0000   1.0000   1.0000   1.0000   1.0000   1.0000   1.0000   1.0000
     1.0000   1.0000   1.0000   1.0000   1.0000   1.0000   1.0000   1.0000
     1.0000   1.0000   1.0000   1.0000   1.0000   1.0000   1.0000   1.0000
     1.0000   1.0000   1.0000   1.0000   1.0000   1.0000   1.0000   1.0000
     1.0000   1.0000   1.0000   1.0000   1.0000   1.0000   1.0000   1.0000
     1.0000   1.0000   1.0000   1.0000   1.0000   1.0000   1.0000   1.0000
     1.0000   1.0000   1.0000   1.0000   1.0000   1.0000   1.0000   1.0000
     1.0000   1.0000   1.0000   1.0000   1.0000   1.0000   1.0000   1.0000
     1.0000   1.0000   1.0000   1.0000   1.0000   1.0000   1.0000   1.0000
     1.0000   1.0000   1.0000   1.0000   1.0000   1.0000   1.0000   1.0000
     1.0000   1.0000   1.0000   1.0000   1.0000   1.0000   1.0000   1.0000
     1.0000   1.0000   1.0000   1.0000   1.0000   1.0000   1.0000   1.0000
     1.0000   1.0000   1.0000   1.0000   1.0000   1.0000   1.0000   1.0000
     1.0000   1.0000   1.0000   1.0000   1.0000   1.0000   1.0000   1.0000
     1.0000   1.0000   1.0000   1.0000   1.0000   1.0000   1.0000   1.0000
     1.0000   1.0000   1.0000   1.0000   1.0000   1.0000   1.0000   1.0000
     1.0000   1.0000   1.0000   1.0000   1.0000   1.0000   1.0000   1.0000
     1.0000   1.0000   1.0000   1.0000   1.0000   1.0000   1.0000   1.0000
     1.0000   1.0000   1.0000   1.0000   1.0000   1.0000   1.0000   1.0000
     1.0000   1.0000   1.0000   1.0000   1.0000   1.0000   1.0000   1.0000
     1.0000   1.0000   1.0000   1.0000   1.0000   1.0000   1.0000   1.0000
     1.0000   1.0000   1.0000   1.0000   1.0000   1.0000   1.0000   1.0000
     1.0000   1.0000   1.0000   1.0000   1.0000   1.0000   1.0000   1.0000
     1.0000   1.0000   1.0000   1.0000   1.0000   1.0000   1.0000   1.0000
     1.0000   1.0000   1.0000   1.0000   1.0000   1.0000   1.0000   1.0000
     1.0000   1.0000   1.0000   1.0000   1.0000   1.0000   1.0000   1.0000
     1.0000   1.0000   1.0000   1.0000   1.0000   1.0000   1.0000   1.0000
     1.0000   1.0000   1.0000   1.0000   1.0000   1.0000   1.0000   1.0000
     1.0000   1.0000   1.0000   1.0000   1.0000   1.0000   1.0000   1.0000
     1.0000   1.0000   1.0000   1.0000   1.0000   1.0000   1.0000   1.0000
     1.0000   1.0000   1.0000   1.0000   1.0000   1.0000   1.0000   1.0000
     1.0000   1.0000   1.0000   1.0000   1.0000   1.0000   1.0000   1.0000
     1.0000   1.0000   1.0000   1.0000   1.0000   1.0000   1.0000   1.0000
     1.0000   1.0000   1.0000   1.0000   1.0000   1.0000   1.0000   1.0000
     1.0000   1.0000   1.0000   1.0000   1.0000   1.0000   1.0000   1.0000
     1.0000   1.0000   1.0000   1.0000   1.0000   1.0000   1.0000   1.0000
     1.0000   1.0000   1.0000   1.0000   1.0000   1.0000   1.0000   1.0000
     1.0000   1.0000   1.0000   1.0000   1.0000   1.0000   1.0000   1.0000
     1.0000   1.0000   1.0000   1.0000   1.0000   1.0000   1.0000   1.0000
     1.0000   1.0000   1.0000   1.0000   1.0000   1.0000   1.0000   1.0000
     1.0000   1.0000   1.0000   1.0000   1.0000   1.0000   1.0000   1.0000
     1.0000   1.0000   1.0000   1.0000   1.0000   1.0000   1.0000   1.0000
     1.0000   1.0000   1.0000   1.0000   1.0000   1.0000   1.0000   1.0000
     1.0000   1.0000   1.0000   1.0000   1.0000   1.0000   1.0000   1.0000
     1.0000   1.0000   1.0000   1.0000   1.0000   1.0000   1.0000   1.0000
     1.0000   1.0000   1.0000   1.0000   1.0000   1.0000   1.0000   1.0000
     1.0000   1.0000   1.0000   1.0000   1.0000   1.0000   1.0000   1.0001
     1.0001   1.0001   1.0002   1.0002   1.0003   1.0004   1.0005   1.0006
     1.0007   1.0008   1.0012   1.0012   1.0015   1.0018   1.0023   1.0025
     1.0030   1.0033   1.0049   1.0060   1.0074   1.0085   1.0104   1.0137
     1.0146   1.0155   1.0184   1.0245   1.0271   1.0306   1.0391   1.0398
     1.0502   1.0707   1.0780   1.0820   1.0832   1.0811   1.0791   1.0772
     1.0757   1.0737   1.0672   1.0045   0.9985   0.9935   0.9504   0.9242
     0.9006   0.8486   0.8353   0.8160   0.7912   0.6751   0.5593   0.5350
     0.3874   0.3797   0.1321   0.1122   0.0355   0.0328   0.0036   0.0022
     0.0002   0.0000   0.0000   0.0000   0.0000   0.0000   0.0000   0.0000
     0.0000   0.0000   0.0000   0.0000   0.0000   0.0000   0.0000   0.0000
     0.0000   0.0000   0.0000   0.0000   0.0000   0.0000   0.0000   0.0000
     0.0000   0.0000   0.0000   0.0000   0.0000   0.0000   0.0000   0.0000
     0.0000   0.0000   0.0000   0.0000   0.0000   0.0000   0.0000   0.0000
     0.0000   0.0000   0.0000   0.0000   0.0000   0.0000   0.0000   0.0000
     0.0000   0.0000   0.0000   0.0000   0.0000   0.0000   0.0000   0.0000
     0.0000   0.0000   0.0000   0.0000   0.0000   0.0000   0.0000   0.0000
     0.0000   0.0000   0.0000   0.0000   0.0000   0.0000   0.0000   0.0000
     0.0000   0.0000   0.0000   0.0000   0.0000   0.0000   0.0000   0.0000
     0.0000   0.0000   0.0000   0.0000   0.0000   0.0000   0.0000   0.0000
     0.0000   0.0000   0.0000   0.0000   0.0000   0.0000   0.0000   0.0000
     0.0000   0.0000   0.0000   0.0000   0.0000   0.0000   0.0000   0.0000
     0.0000   0.0000   0.0000   0.0000   0.0000   0.0000   0.0000   0.0000
     0.0000   0.0000   0.0000   0.0000   0.0000   0.0000   0.0000   0.0000
     0.0000   0.0000   0.0000   0.0000   0.0000   0.0000   0.0000   0.0000
     0.0000   0.0000   0.0000   0.0000   0.0000   0.0000   0.0000   0.0000
     0.0000   0.0000   0.0000   0.0000   0.0000   0.0000   0.0000   0.0000

          k = 0.3333 0.5774 0.0000 (319908 PWs)   bands (ev):

   -59.7004 -59.6961 -59.6949 -59.6589 -59.6577 -59.6571 -59.6373 -59.6362
   -59.6344 -59.6321 -59.6308 -59.6304 -59.6262 -59.6258 -59.6249 -59.6137
   -35.8383 -35.8369 -35.8337 -35.8184 -35.8038 -35.8026 -35.7997 -35.7968
   -35.7924 -35.7837 -35.7669 -35.7586 -35.7528 -35.7482 -35.7364 -35.7339
   -35.7249 -35.7155 -35.7114 -35.7106 -35.7096 -35.6988 -35.6985 -35.6893
   -35.6874 -35.6840 -35.6810 -35.6804 -35.6789 -35.6779 -35.6755 -35.6702
   -35.6696 -35.6661 -35.6631 -35.6615 -35.6593 -35.6589 -35.6535 -35.6502
   -35.6489 -35.6481 -35.6446 -35.6427 -35.6414 -35.6407 -35.6389 -35.6352
   -23.6825 -23.6742 -23.6234 -23.2158 -23.2103 -23.2023 -22.9396 -22.9379
   -22.9033 -22.6632 -22.6460 -22.6394 -22.6392 -22.6103 -22.5823 -22.3193
   -22.3129 -22.2894 -22.1925 -22.1841 -22.1650 -22.0509 -22.0398 -22.0360
   -22.0135 -22.0131 -22.0009 -21.9693 -21.9602 -21.9453 -21.8754 -21.8727
   -21.8682 -21.8518 -21.8470 -21.8429 -21.7281 -21.7195 -21.7182 -21.7162
   -21.7033 -21.7024 -21.6994 -21.6861 -21.6812 -21.6394 -21.6369 -21.6061
   -21.5424 -21.5314 -21.5293 -21.5171 -21.5106 -21.4991 -21.4860 -21.4810
   -21.4648 -21.4237 -21.3994 -21.3956 -21.3873 -21.3779 -21.3758 -21.3472
   -21.3404 -21.3354 -21.3128 -21.3034 -21.2959 -21.1333 -21.1332 -21.1328
   -21.1224 -21.1211 -21.1144 -21.0732 -21.0670 -21.0668 -21.0504 -21.0486
   -21.0483 -20.9751 -20.9716 -20.9704 -20.9521 -20.9489 -20.9471 -20.6016
   -20.6016 -20.6016 -20.5985 -20.5978 -20.5975 -19.6921 -19.6920 -19.6919
   -19.6629 -19.6629 -19.6622 -19.2982 -19.2969 -19.2948 -19.1318 -19.1312
   -19.1308 -19.0493 -19.0492 -19.0476 -18.6889 -18.6885 -18.6854 -18.4893
   -17.7179 -17.6846 -17.6808 -17.2192 -17.2138 -17.2134 -16.9596 -16.9271
   -16.9257 -16.8732 -16.8721 -16.8578 -16.8196 -16.7911 -16.7855 -16.7057
   -16.6400 -16.6332 -16.5936 -16.5916 -16.5895 -16.5703 -16.4897 -16.4793
   -16.4784 -16.4445 -16.4392 -16.4337 -16.3720 -16.3397 -16.3370 -16.3030
   -13.0563 -13.0561 -13.0560 -12.7211 -12.7209 -12.7198 -12.7038 -12.7029
   -12.7025 -12.1597 -12.1124 -12.1081 -12.1072 -12.0186 -12.0186 -12.0183
   -11.7193 -11.4566 -11.4564 -11.4562 -11.0393 -11.0389 -11.0351 -11.0132
   -11.0065 -10.9782 -10.7770 -10.7711 -10.7648 -10.7601 -10.7568 -10.7472
   -10.7368 -10.7350 -10.7326 -10.7186 -10.6963 -10.6942 -10.6030 -10.6009
   -10.6006 -10.4856 -10.4847 -10.4541 -10.3904 -10.3842 -10.3648 -10.2913
   -10.2863 -10.2820 -10.2659 -10.2658 -10.2505 -10.2406 -10.2322 -10.2179
   -10.1795 -10.1793 -10.1793  -9.9369  -9.9367  -9.9367  -9.9339  -9.9320
    -9.9277  -9.7799  -9.7730  -9.7685  -9.7371  -9.7368  -9.7345  -9.6087
    -9.6071  -9.5924  -9.5541  -9.5526  -9.5495  -9.5332  -9.5285  -9.5135
    -9.5100  -9.5091  -9.5083  -9.4880  -9.4867  -9.4854  -9.2938  -9.2929
    -9.2854  -9.2580  -9.2505  -9.2450  -9.1447  -9.1357  -9.1236  -9.1228
    -9.1223  -9.1145  -9.1094  -9.1044  -9.0952  -9.0526  -9.0475  -9.0435
    -8.9928  -8.9883  -8.9877  -8.9476  -8.9349  -8.9283  -8.9163  -8.9055
    -8.9043  -8.8344  -8.8271  -8.8131  -8.8066  -8.8061  -8.8044  -8.7518
    -8.7177  -8.7084  -8.6673  -8.6670  -8.6637  -8.6457  -8.6456  -8.6455
    -8.6425  -8.6393  -8.6391  -8.6365  -8.6314  -8.6280  -8.6168  -8.5523
    -8.5512  -8.5441  -8.5400  -8.5272  -8.5219  -8.5083  -8.5070  -8.5066
    -8.5015  -8.4747  -8.4596  -8.4299  -8.3854  -8.3779  -8.3716  -8.3655
    -8.3394  -8.2810  -8.2079  -8.1934  -8.1686  -8.1566  -8.1501  -8.1487
    -8.1398  -8.1380  -8.1358  -8.1308  -8.1269  -8.1266  -8.1184  -8.1109
    -8.1080  -8.1011  -8.0744  -8.0629  -8.0484  -8.0453  -8.0398  -7.9771
    -7.9751  -7.9653  -7.9397  -7.9372  -7.9355  -7.9060  -7.8942  -7.8854
    -7.8658  -7.8603  -7.8393  -7.8306  -7.8116  -7.7836  -7.7651  -7.7524
    -7.7462  -7.7458  -7.7457  -7.7288  -7.7255  -7.7020  -7.6875  -7.6799
    -7.6430  -7.6015  -7.5852  -7.5745  -7.5721  -7.5602  -7.5539  -7.5533
    -7.5357  -7.5115  -7.5036  -7.5031  -7.4913  -7.3918  -7.3851  -7.3847
    -7.3840  -7.3797  -7.3742  -7.3661  -7.3613  -7.3534  -7.3455  -7.3402
    -7.3344  -7.3261  -7.3243  -7.3174  -7.2809  -7.2746  -7.2701  -7.1757
    -7.1756  -7.1680  -7.1404  -7.1259  -7.0899  -7.0891  -7.0821  -7.0657
    -7.0650  -7.0559  -7.0538  -7.0224  -7.0165  -7.0142  -6.9770  -6.9704
    -6.9450  -6.9385  -6.9324  -6.9256  -6.9097  -6.8909  -6.8823  -6.8655
    -6.8538  -6.8519  -6.8500  -6.8482  -6.8447  -6.8428  -6.8348  -6.8325
    -6.8149  -6.8109  -6.8063  -6.7684  -6.7633  -6.7619  -6.7611  -6.7246
    -6.7193  -6.7113  -6.7058  -6.7001  -6.6825  -6.6224  -6.6032  -6.5968
    -6.5968  -6.5902  -6.5781  -6.5586  -6.5421  -6.5400  -6.5195  -6.5190
    -6.5052  -6.4902  -6.4754  -6.4746  -6.4370  -6.4355  -6.4348  -6.4277
    -6.4246  -6.4170  -6.4164  -6.4162  -6.4104  -6.3943  -6.3819  -6.3749
    -6.3694  -6.3677  -6.3671  -6.3384  -6.3238  -6.3108  -6.3101  -6.2714
    -6.2672  -6.2493  -6.2415  -6.2287  -6.2178  -6.2038  -6.2037  -6.1347
    -6.1345  -6.1179  -6.1174  -6.1073  -6.1035  -6.1002  -6.0952  -6.0857
    -6.0777  -6.0730  -6.0623  -6.0605  -6.0434  -6.0319  -6.0257  -6.0216
    -6.0142  -5.9996  -5.9881  -5.9698  -5.9676  -5.9409  -5.9257  -5.9190
    -5.9087  -5.9047  -5.8960  -5.8833  -5.8822  -5.8698  -5.8681  -5.8664
    -5.8522  -5.8432  -5.8397  -5.8198  -5.8183  -5.8023  -5.7819  -5.7786
    -5.7631  -5.7627  -5.7363  -5.7355  -5.7329  -5.7218  -5.7119  -5.7110
    -5.6856  -5.6501  -5.6349  -5.6337  -5.6241  -5.6170  -5.6117  -5.5849
    -5.5773  -5.5651  -5.5643  -5.5307  -5.5136  -5.4808  -5.4696  -5.4603
    -5.4560  -5.4473  -5.4258  -5.4193  -5.3794  -5.3372  -5.3237  -5.3059
    -5.2953  -5.2948  -5.2919  -5.2805  -5.2631  -5.2615  -5.2348  -5.2258
    -5.2139  -5.1955  -5.1780  -5.1757  -5.1442  -5.1344  -5.1296  -5.0587
    -5.0581  -5.0579  -5.0311  -5.0216  -5.0124  -4.9871  -4.9667  -4.9578
    -4.8991  -4.8920  -4.8898  -4.8312  -4.8297  -4.8189  -4.8151  -4.8069
    -4.7887  -4.7579  -4.7579  -4.7502  -4.6723  -4.6560  -4.6492  -4.6343
    -4.6325  -4.6162  -4.6028  -4.6004  -4.5973  -4.5956  -4.5588  -4.5576
    -4.5557  -4.3285  -4.3189  -4.3031  -4.0113  -3.9746  -3.9470  -3.9444
    -3.8813  -3.8750  -3.8573  -3.6900  -3.6893  -3.6836  -3.6285  -3.6273
    -3.6210  -2.8759  -2.4493  -2.4229  -2.4053  -2.2754  -2.2607  -2.2459
    -2.2253  -2.2096  -2.2014  -2.1753  -2.1664  -2.1537  -2.0489  -2.0372
    -2.0138  -1.9795  -1.9645  -1.9473  -1.9461  -1.9171  -1.9075  -1.8953
    -1.8891  -1.8803  -1.8748  -1.8698  -1.8366  -1.8293  -1.8184  -1.8170
    -1.7484  -1.7124  -1.7088  -1.6216  -1.5658  -1.5607  -1.3138  -1.3041
    -1.3032  -1.2847  -1.2781  -1.2179  -1.1291  -1.1168  -1.1093  -1.0920
    -1.0499  -0.9321  -0.8853  -0.8648  -0.8057  -0.8057  -0.8034  -0.5672
    -0.5521  -0.5142  -0.4925  -0.4690  -0.4415  -0.4218  -0.4136  -0.4050
    -0.3957  -0.3801  -0.3773  -0.3773  -0.3573  -0.3478  -0.3396  -0.3392
    -0.3389  -0.2524  -0.0839   0.0301   0.0303   0.0340   0.2413   0.2418
     0.2425   0.3935   0.4013   0.4147   0.7306   0.7364   0.7389   0.7933
     0.7944   0.7946   0.8609   0.8687   0.8829   0.8832   0.8834   0.9467
     0.9572   0.9721   1.0007   1.0219   1.0470   1.0832   1.0848   1.0853
     1.0908   1.0930   1.0937   1.1916   1.2633   1.2921   1.4441   1.4581
     1.4624   1.4877   1.4881   1.4884   1.5828   1.5832   1.5969   1.6703
     1.6881   1.6886   1.6904   1.6927   1.6936   1.7688   1.7697   1.7702
     1.8641   1.9157   1.9195   1.9630   2.0836   2.0861   2.1018   2.1071

     occupation numbers 
     1.0000   1.0000   1.0000   1.0000   1.0000   1.0000   1.0000   1.0000
     1.0000   1.0000   1.0000   1.0000   1.0000   1.0000   1.0000   1.0000
     1.0000   1.0000   1.0000   1.0000   1.0000   1.0000   1.0000   1.0000
     1.0000   1.0000   1.0000   1.0000   1.0000   1.0000   1.0000   1.0000
     1.0000   1.0000   1.0000   1.0000   1.0000   1.0000   1.0000   1.0000
     1.0000   1.0000   1.0000   1.0000   1.0000   1.0000   1.0000   1.0000
     1.0000   1.0000   1.0000   1.0000   1.0000   1.0000   1.0000   1.0000
     1.0000   1.0000   1.0000   1.0000   1.0000   1.0000   1.0000   1.0000
     1.0000   1.0000   1.0000   1.0000   1.0000   1.0000   1.0000   1.0000
     1.0000   1.0000   1.0000   1.0000   1.0000   1.0000   1.0000   1.0000
     1.0000   1.0000   1.0000   1.0000   1.0000   1.0000   1.0000   1.0000
     1.0000   1.0000   1.0000   1.0000   1.0000   1.0000   1.0000   1.0000
     1.0000   1.0000   1.0000   1.0000   1.0000   1.0000   1.0000   1.0000
     1.0000   1.0000   1.0000   1.0000   1.0000   1.0000   1.0000   1.0000
     1.0000   1.0000   1.0000   1.0000   1.0000   1.0000   1.0000   1.0000
     1.0000   1.0000   1.0000   1.0000   1.0000   1.0000   1.0000   1.0000
     1.0000   1.0000   1.0000   1.0000   1.0000   1.0000   1.0000   1.0000
     1.0000   1.0000   1.0000   1.0000   1.0000   1.0000   1.0000   1.0000
     1.0000   1.0000   1.0000   1.0000   1.0000   1.0000   1.0000   1.0000
     1.0000   1.0000   1.0000   1.0000   1.0000   1.0000   1.0000   1.0000
     1.0000   1.0000   1.0000   1.0000   1.0000   1.0000   1.0000   1.0000
     1.0000   1.0000   1.0000   1.0000   1.0000   1.0000   1.0000   1.0000
     1.0000   1.0000   1.0000   1.0000   1.0000   1.0000   1.0000   1.0000
     1.0000   1.0000   1.0000   1.0000   1.0000   1.0000   1.0000   1.0000
     1.0000   1.0000   1.0000   1.0000   1.0000   1.0000   1.0000   1.0000
     1.0000   1.0000   1.0000   1.0000   1.0000   1.0000   1.0000   1.0000
     1.0000   1.0000   1.0000   1.0000   1.0000   1.0000   1.0000   1.0000
     1.0000   1.0000   1.0000   1.0000   1.0000   1.0000   1.0000   1.0000
     1.0000   1.0000   1.0000   1.0000   1.0000   1.0000   1.0000   1.0000
     1.0000   1.0000   1.0000   1.0000   1.0000   1.0000   1.0000   1.0000
     1.0000   1.0000   1.0000   1.0000   1.0000   1.0000   1.0000   1.0000
     1.0000   1.0000   1.0000   1.0000   1.0000   1.0000   1.0000   1.0000
     1.0000   1.0000   1.0000   1.0000   1.0000   1.0000   1.0000   1.0000
     1.0000   1.0000   1.0000   1.0000   1.0000   1.0000   1.0000   1.0000
     1.0000   1.0000   1.0000   1.0000   1.0000   1.0000   1.0000   1.0000
     1.0000   1.0000   1.0000   1.0000   1.0000   1.0000   1.0000   1.0000
     1.0000   1.0000   1.0000   1.0000   1.0000   1.0000   1.0000   1.0000
     1.0000   1.0000   1.0000   1.0000   1.0000   1.0000   1.0000   1.0000
     1.0000   1.0000   1.0000   1.0000   1.0000   1.0000   1.0000   1.0000
     1.0000   1.0000   1.0000   1.0000   1.0000   1.0000   1.0000   1.0000
     1.0000   1.0000   1.0000   1.0000   1.0000   1.0000   1.0000   1.0000
     1.0000   1.0000   1.0000   1.0000   1.0000   1.0000   1.0000   1.0000
     1.0000   1.0000   1.0000   1.0000   1.0000   1.0000   1.0000   1.0000
     1.0000   1.0000   1.0000   1.0000   1.0000   1.0000   1.0000   1.0000
     1.0000   1.0000   1.0000   1.0000   1.0000   1.0000   1.0000   1.0000
     1.0000   1.0000   1.0000   1.0000   1.0000   1.0000   1.0000   1.0000
     1.0000   1.0000   1.0000   1.0000   1.0000   1.0000   1.0000   1.0000
     1.0000   1.0000   1.0000   1.0000   1.0000   1.0000   1.0000   1.0000
     1.0000   1.0000   1.0000   1.0000   1.0000   1.0000   1.0000   1.0000
     1.0000   1.0000   1.0000   1.0000   1.0000   1.0000   1.0000   1.0000
     1.0000   1.0000   1.0000   1.0000   1.0000   1.0000   1.0000   1.0000
     1.0000   1.0000   1.0000   1.0000   1.0000   1.0000   1.0000   1.0000
     1.0000   1.0000   1.0000   1.0000   1.0000   1.0000   1.0000   1.0000
     1.0000   1.0000   1.0000   1.0000   1.0000   1.0000   1.0000   1.0000
     1.0000   1.0000   1.0000   1.0000   1.0000   1.0000   1.0000   1.0000
     1.0000   1.0000   1.0000   1.0000   1.0000   1.0000   1.0000   1.0000
     1.0000   1.0000   1.0000   1.0000   1.0000   1.0000   1.0000   1.0000
     1.0000   1.0000   1.0000   1.0000   1.0000   1.0000   1.0000   1.0000
     1.0000   1.0000   1.0000   1.0000   1.0000   1.0000   1.0000   1.0000
     1.0000   1.0000   1.0000   1.0000   1.0000   1.0000   1.0000   1.0000
     1.0000   1.0000   1.0000   1.0000   1.0000   1.0000   1.0000   1.0000
     1.0000   1.0000   1.0000   1.0000   1.0000   1.0000   1.0000   1.0000
     1.0000   1.0000   1.0000   1.0000   1.0000   1.0000   1.0000   1.0000
     1.0000   1.0000   1.0000   1.0000   1.0000   1.0000   1.0000   1.0000
     1.0000   1.0000   1.0000   1.0000   1.0000   1.0000   1.0000   1.0000
     1.0000   1.0000   1.0000   1.0000   1.0000   1.0000   1.0000   1.0000
     1.0000   1.0000   1.0000   1.0000   1.0000   1.0000   1.0000   1.0000
     1.0000   1.0000   1.0000   1.0000   1.0000   1.0000   1.0000   1.0000
     1.0000   1.0000   1.0000   1.0000   1.0000   1.0000   1.0000   1.0000
     1.0000   1.0000   1.0000   1.0000   1.0000   1.0000   1.0000   1.0000
     1.0000   1.0000   1.0000   1.0000   1.0000   1.0000   1.0000   1.0000
     1.0000   1.0000   1.0000   1.0000   1.0000   1.0000   1.0000   1.0000
     1.0000   1.0000   1.0000   1.0000   1.0000   1.0000   1.0000   1.0000
     1.0000   1.0000   1.0000   1.0000   1.0000   1.0000   1.0000   1.0000
     1.0000   1.0000   1.0001   1.0001   1.0002   1.0004   1.0005   1.0007
     1.0009   1.0009   1.0009   1.0011   1.0015   1.0015   1.0024   1.0027
     1.0032   1.0042   1.0054   1.0056   1.0085   1.0096   1.0102   1.0226
     1.0227   1.0228   1.0295   1.0321   1.0348   1.0427   1.0496   1.0527
     1.0720   1.0741   1.0747   1.0833   1.0833   1.0827   1.0823   1.0810
     1.0761   1.0607   1.0607   1.0552   0.9601   0.9309   0.9176   0.8871
     0.8833   0.8468   0.8150   0.8093   0.8017   0.7973   0.7017   0.6985
     0.6932   0.1604   0.1468   0.1262   0.0025   0.0013   0.0008   0.0007
     0.0002   0.0002   0.0001   0.0000   0.0000   0.0000   0.0000   0.0000
     0.0000   0.0000   0.0000   0.0000   0.0000   0.0000   0.0000   0.0000
     0.0000   0.0000   0.0000   0.0000   0.0000   0.0000   0.0000   0.0000
     0.0000   0.0000   0.0000   0.0000   0.0000   0.0000   0.0000   0.0000
     0.0000   0.0000   0.0000   0.0000   0.0000   0.0000   0.0000   0.0000
     0.0000   0.0000   0.0000   0.0000   0.0000   0.0000   0.0000   0.0000
     0.0000   0.0000   0.0000   0.0000   0.0000   0.0000   0.0000   0.0000
     0.0000   0.0000   0.0000   0.0000   0.0000   0.0000   0.0000   0.0000
     0.0000   0.0000   0.0000   0.0000   0.0000   0.0000   0.0000   0.0000
     0.0000   0.0000   0.0000   0.0000   0.0000   0.0000   0.0000   0.0000
     0.0000   0.0000   0.0000   0.0000   0.0000   0.0000   0.0000   0.0000
     0.0000   0.0000   0.0000   0.0000   0.0000   0.0000   0.0000   0.0000
     0.0000   0.0000   0.0000   0.0000   0.0000   0.0000   0.0000   0.0000
     0.0000   0.0000   0.0000   0.0000   0.0000   0.0000   0.0000   0.0000
     0.0000   0.0000   0.0000   0.0000   0.0000   0.0000   0.0000   0.0000
     0.0000   0.0000   0.0000   0.0000   0.0000   0.0000   0.0000   0.0000
     0.0000   0.0000   0.0000   0.0000   0.0000   0.0000   0.0000   0.0000
     0.0000   0.0000   0.0000   0.0000   0.0000   0.0000   0.0000   0.0000

          k = 0.3333-0.1925 0.0000 (319990 PWs)   bands (ev):

   -59.7004 -59.6961 -59.6949 -59.6589 -59.6577 -59.6571 -59.6376 -59.6356
   -59.6346 -59.6324 -59.6307 -59.6304 -59.6261 -59.6257 -59.6249 -59.6137
   -35.8408 -35.8398 -35.8368 -35.8169 -35.8071 -35.8014 -35.8008 -35.7868
   -35.7861 -35.7815 -35.7694 -35.7605 -35.7490 -35.7432 -35.7331 -35.7270
   -35.7260 -35.7250 -35.7174 -35.7109 -35.7098 -35.7059 -35.7004 -35.6929
   -35.6871 -35.6851 -35.6846 -35.6833 -35.6795 -35.6779 -35.6746 -35.6697
   -35.6689 -35.6635 -35.6610 -35.6600 -35.6591 -35.6562 -35.6537 -35.6498
   -35.6485 -35.6479 -35.6436 -35.6427 -35.6420 -35.6412 -35.6357 -35.6354
   -23.7719 -23.6088 -23.4523 -23.4448 -23.1702 -23.1644 -23.0431 -22.9253
   -22.9247 -22.7089 -22.5892 -22.5696 -22.4914 -22.4875 -22.4608 -22.4504
   -22.3948 -22.3936 -22.2095 -22.2044 -22.1918 -22.1877 -22.1011 -22.0334
   -22.0304 -21.9907 -21.9814 -21.9215 -21.9124 -21.9042 -21.8983 -21.8651
   -21.8322 -21.8320 -21.8256 -21.8045 -21.7739 -21.7635 -21.7445 -21.7158
   -21.7088 -21.6868 -21.6767 -21.6693 -21.6371 -21.6144 -21.5923 -21.5875
   -21.5786 -21.5255 -21.5146 -21.4963 -21.4846 -21.4784 -21.4693 -21.4568
   -21.4455 -21.4453 -21.4441 -21.4294 -21.4225 -21.4011 -21.3837 -21.3735
   -21.3682 -21.3512 -21.3381 -21.2613 -21.2226 -21.2209 -21.1796 -21.1767
   -21.1141 -21.1130 -21.0724 -21.0718 -21.0580 -21.0555 -21.0355 -21.0343
   -21.0220 -21.0036 -20.9972 -20.9946 -20.9551 -20.9280 -20.9180 -20.8916
   -20.7146 -20.7132 -20.3777 -20.2168 -20.2091 -20.0665 -20.0566 -19.7666
   -19.7552 -19.5359 -19.5053 -19.3130 -19.2965 -19.2424 -19.2386 -19.1487
   -19.0125 -18.9887 -18.9404 -18.8761 -18.8322 -18.7836 -18.5877 -18.5741
   -17.8240 -17.6339 -17.4659 -17.4559 -17.1797 -17.1722 -17.0595 -16.9615
   -16.9527 -16.8561 -16.8176 -16.7772 -16.7725 -16.7469 -16.7305 -16.6995
   -16.6973 -16.6910 -16.6121 -16.6093 -16.5772 -16.5759 -16.5289 -16.4857
   -16.4819 -16.4242 -16.4037 -16.3934 -16.3835 -16.3654 -16.3236 -16.3223
   -13.2322 -13.1086 -12.9869 -12.8427 -12.7454 -12.6561 -12.6203 -12.5016
   -12.4223 -12.3780 -12.3755 -12.3586 -12.2023 -12.0226 -11.8982 -11.6090
   -11.3651 -11.3053 -11.2804 -11.2361 -11.1291 -11.0766 -11.0496 -11.0086
   -11.0052 -11.0010 -10.9435 -10.9398 -10.9365 -10.8179 -10.7711 -10.7622
   -10.7343 -10.7233 -10.7191 -10.7159 -10.6894 -10.6279 -10.6250 -10.6086
   -10.6029 -10.5741 -10.5533 -10.5529 -10.5031 -10.4887 -10.4253 -10.4165
   -10.3945 -10.3526 -10.3201 -10.2879 -10.2678 -10.2392 -10.2248 -10.2054
   -10.1908 -10.1669 -10.1201 -10.0868 -10.0756 -10.0440 -10.0311  -9.9165
    -9.8431  -9.8090  -9.7749  -9.7713  -9.7209  -9.7073  -9.6792  -9.6308
    -9.6226  -9.6098  -9.5978  -9.5936  -9.5552  -9.4670  -9.4205  -9.4137
    -9.4062  -9.3576  -9.3543  -9.3386  -9.2951  -9.2888  -9.2761  -9.2694
    -9.2257  -9.2026  -9.1912  -9.1833  -9.1750  -9.1711  -9.1320  -9.1073
    -9.1065  -9.0995  -9.0849  -9.0768  -9.0628  -9.0557  -9.0396  -9.0215
    -8.9957  -8.9640  -8.9586  -8.9484  -8.9430  -8.9276  -8.9239  -8.9000
    -8.8784  -8.8683  -8.8438  -8.8327  -8.8313  -8.8145  -8.8041  -8.7888
    -8.7827  -8.7657  -8.7403  -8.7261  -8.7253  -8.7218  -8.7098  -8.7066
    -8.7022  -8.6750  -8.6388  -8.6233  -8.6187  -8.6037  -8.5621  -8.5569
    -8.5481  -8.5405  -8.5222  -8.5153  -8.5046  -8.4694  -8.4573  -8.4510
    -8.4481  -8.4363  -8.4299  -8.3939  -8.3380  -8.3356  -8.3262  -8.3141
    -8.3060  -8.2741  -8.2721  -8.2547  -8.2250  -8.2232  -8.2139  -8.2087
    -8.1846  -8.1625  -8.1589  -8.1464  -8.1424  -8.1364  -8.1305  -8.1133
    -8.1018  -8.0989  -8.0726  -8.0693  -8.0476  -8.0361  -7.9996  -7.9857
    -7.9683  -7.9588  -7.9347  -7.9246  -7.8880  -7.8676  -7.8644  -7.8599
    -7.8459  -7.8439  -7.8365  -7.8167  -7.8052  -7.7873  -7.7779  -7.7699
    -7.7612  -7.7371  -7.7275  -7.7187  -7.7044  -7.6863  -7.6757  -7.6563
    -7.6537  -7.6464  -7.6361  -7.6297  -7.6267  -7.5812  -7.5756  -7.5351
    -7.5281  -7.4984  -7.4726  -7.4526  -7.4378  -7.4324  -7.4272  -7.4203
    -7.3783  -7.3553  -7.3480  -7.3397  -7.3253  -7.3164  -7.3071  -7.2957
    -7.2905  -7.2889  -7.2743  -7.2521  -7.2465  -7.2229  -7.2184  -7.2072
    -7.1898  -7.1594  -7.1300  -7.1192  -7.1144  -7.1085  -7.1022  -7.0959
    -7.0894  -7.0621  -7.0474  -7.0403  -7.0042  -6.9975  -6.9899  -6.9841
    -6.9620  -6.9392  -6.9310  -6.9263  -6.9217  -6.9119  -6.9001  -6.8945
    -6.8909  -6.8794  -6.8761  -6.8669  -6.8622  -6.8553  -6.8517  -6.8427
    -6.8346  -6.8308  -6.8244  -6.8219  -6.8093  -6.7969  -6.7823  -6.7504
    -6.7414  -6.7340  -6.7066  -6.6940  -6.6743  -6.6608  -6.6540  -6.6513
    -6.6408  -6.6068  -6.5991  -6.5833  -6.5588  -6.5554  -6.5442  -6.5299
    -6.5206  -6.5166  -6.5149  -6.4892  -6.4791  -6.4734  -6.4710  -6.4549
    -6.4513  -6.4423  -6.4363  -6.4128  -6.4022  -6.3969  -6.3839  -6.3449
    -6.3331  -6.3258  -6.3225  -6.3190  -6.3143  -6.3014  -6.2957  -6.2904
    -6.2684  -6.2649  -6.2501  -6.2390  -6.2342  -6.2148  -6.2014  -6.1805
    -6.1673  -6.1480  -6.1425  -6.1376  -6.1228  -6.1176  -6.1119  -6.0937
    -6.0816  -6.0769  -6.0636  -6.0569  -6.0472  -6.0417  -6.0290  -6.0158
    -6.0063  -5.9920  -5.9877  -5.9820  -5.9726  -5.9668  -5.9523  -5.9452
    -5.9396  -5.9337  -5.9211  -5.9145  -5.8999  -5.8935  -5.8760  -5.8628
    -5.8435  -5.8239  -5.8106  -5.8031  -5.7952  -5.7593  -5.7516  -5.7423
    -5.7291  -5.7104  -5.6982  -5.6869  -5.6738  -5.6630  -5.6539  -5.6383
    -5.6272  -5.6176  -5.6061  -5.5981  -5.5928  -5.5775  -5.5548  -5.5393
    -5.5270  -5.5024  -5.4985  -5.4865  -5.4797  -5.4641  -5.4524  -5.4234
    -5.4181  -5.3910  -5.3775  -5.3691  -5.3588  -5.3386  -5.3256  -5.3164
    -5.3069  -5.3013  -5.2787  -5.2745  -5.2648  -5.2507  -5.2351  -5.2301
    -5.2198  -5.2117  -5.1850  -5.1701  -5.1553  -5.1442  -5.1281  -5.1046
    -5.0992  -5.0943  -5.0784  -5.0507  -5.0401  -5.0271  -4.9987  -4.9959
    -4.9647  -4.9037  -4.8759  -4.8532  -4.8395  -4.8076  -4.7985  -4.7919
    -4.7873  -4.7823  -4.7688  -4.7014  -4.6970  -4.6936  -4.6667  -4.6526
    -4.6408  -4.6171  -4.6111  -4.6033  -4.5930  -4.5490  -4.5070  -4.4982
    -4.4423  -4.4392  -4.3077  -4.2913  -4.1901  -4.1831  -4.0330  -4.0049
    -3.8685  -3.7881  -3.7876  -3.6831  -3.6747  -3.6743  -3.6470  -3.6178
    -3.6175  -2.6409  -2.6350  -2.3028  -2.2774  -2.2643  -2.2483  -2.2450
    -2.2060  -2.1982  -2.1691  -2.1449  -2.1327  -2.0970  -2.0813  -1.9984
    -1.9969  -1.9733  -1.9596  -1.9529  -1.9439  -1.9273  -1.9229  -1.9061
    -1.8884  -1.8841  -1.8672  -1.8530  -1.8485  -1.8426  -1.7867  -1.7745
    -1.7672  -1.6630  -1.6146  -1.6107  -1.5840  -1.5730  -1.5121  -1.5080
    -1.3440  -1.3348  -1.2908  -1.2254  -1.1301  -1.1179  -1.0557  -1.0545
    -0.9708  -0.9331  -0.8882  -0.8859  -0.8475  -0.8410  -0.7305  -0.5686
    -0.5604  -0.5404  -0.5400  -0.5251  -0.4507  -0.4353  -0.4310  -0.4092
    -0.3790  -0.3778  -0.3763  -0.3579  -0.3410  -0.3188  -0.2988  -0.2833
    -0.2129  -0.2120  -0.0228   0.0157   0.0447   0.0526   0.0912   0.1823
     0.2856   0.3000   0.3823   0.4791   0.6267   0.6312   0.6567   0.6930
     0.6980   0.7050   0.7259   0.7322   0.7425   0.7576   0.7992   0.8098
     0.8749   0.9027   0.9328   0.9686   1.0203   1.0329   1.1172   1.2213
     1.2285   1.2462   1.2565   1.2575   1.2719   1.3044   1.3225   1.3353
     1.4111   1.4138   1.5549   1.6615   1.6833   1.6921   1.6968   1.7005
     1.7366   1.7897   1.8250   1.8271   1.8517   1.8796   1.8960   1.9622
     2.0174   2.0539   2.0976   2.1361   2.1390   2.1411   2.1470   2.1626

     occupation numbers 
     1.0000   1.0000   1.0000   1.0000   1.0000   1.0000   1.0000   1.0000
     1.0000   1.0000   1.0000   1.0000   1.0000   1.0000   1.0000   1.0000
     1.0000   1.0000   1.0000   1.0000   1.0000   1.0000   1.0000   1.0000
     1.0000   1.0000   1.0000   1.0000   1.0000   1.0000   1.0000   1.0000
     1.0000   1.0000   1.0000   1.0000   1.0000   1.0000   1.0000   1.0000
     1.0000   1.0000   1.0000   1.0000   1.0000   1.0000   1.0000   1.0000
     1.0000   1.0000   1.0000   1.0000   1.0000   1.0000   1.0000   1.0000
     1.0000   1.0000   1.0000   1.0000   1.0000   1.0000   1.0000   1.0000
     1.0000   1.0000   1.0000   1.0000   1.0000   1.0000   1.0000   1.0000
     1.0000   1.0000   1.0000   1.0000   1.0000   1.0000   1.0000   1.0000
     1.0000   1.0000   1.0000   1.0000   1.0000   1.0000   1.0000   1.0000
     1.0000   1.0000   1.0000   1.0000   1.0000   1.0000   1.0000   1.0000
     1.0000   1.0000   1.0000   1.0000   1.0000   1.0000   1.0000   1.0000
     1.0000   1.0000   1.0000   1.0000   1.0000   1.0000   1.0000   1.0000
     1.0000   1.0000   1.0000   1.0000   1.0000   1.0000   1.0000   1.0000
     1.0000   1.0000   1.0000   1.0000   1.0000   1.0000   1.0000   1.0000
     1.0000   1.0000   1.0000   1.0000   1.0000   1.0000   1.0000   1.0000
     1.0000   1.0000   1.0000   1.0000   1.0000   1.0000   1.0000   1.0000
     1.0000   1.0000   1.0000   1.0000   1.0000   1.0000   1.0000   1.0000
     1.0000   1.0000   1.0000   1.0000   1.0000   1.0000   1.0000   1.0000
     1.0000   1.0000   1.0000   1.0000   1.0000   1.0000   1.0000   1.0000
     1.0000   1.0000   1.0000   1.0000   1.0000   1.0000   1.0000   1.0000
     1.0000   1.0000   1.0000   1.0000   1.0000   1.0000   1.0000   1.0000
     1.0000   1.0000   1.0000   1.0000   1.0000   1.0000   1.0000   1.0000
     1.0000   1.0000   1.0000   1.0000   1.0000   1.0000   1.0000   1.0000
     1.0000   1.0000   1.0000   1.0000   1.0000   1.0000   1.0000   1.0000
     1.0000   1.0000   1.0000   1.0000   1.0000   1.0000   1.0000   1.0000
     1.0000   1.0000   1.0000   1.0000   1.0000   1.0000   1.0000   1.0000
     1.0000   1.0000   1.0000   1.0000   1.0000   1.0000   1.0000   1.0000
     1.0000   1.0000   1.0000   1.0000   1.0000   1.0000   1.0000   1.0000
     1.0000   1.0000   1.0000   1.0000   1.0000   1.0000   1.0000   1.0000
     1.0000   1.0000   1.0000   1.0000   1.0000   1.0000   1.0000   1.0000
     1.0000   1.0000   1.0000   1.0000   1.0000   1.0000   1.0000   1.0000
     1.0000   1.0000   1.0000   1.0000   1.0000   1.0000   1.0000   1.0000
     1.0000   1.0000   1.0000   1.0000   1.0000   1.0000   1.0000   1.0000
     1.0000   1.0000   1.0000   1.0000   1.0000   1.0000   1.0000   1.0000
     1.0000   1.0000   1.0000   1.0000   1.0000   1.0000   1.0000   1.0000
     1.0000   1.0000   1.0000   1.0000   1.0000   1.0000   1.0000   1.0000
     1.0000   1.0000   1.0000   1.0000   1.0000   1.0000   1.0000   1.0000
     1.0000   1.0000   1.0000   1.0000   1.0000   1.0000   1.0000   1.0000
     1.0000   1.0000   1.0000   1.0000   1.0000   1.0000   1.0000   1.0000
     1.0000   1.0000   1.0000   1.0000   1.0000   1.0000   1.0000   1.0000
     1.0000   1.0000   1.0000   1.0000   1.0000   1.0000   1.0000   1.0000
     1.0000   1.0000   1.0000   1.0000   1.0000   1.0000   1.0000   1.0000
     1.0000   1.0000   1.0000   1.0000   1.0000   1.0000   1.0000   1.0000
     1.0000   1.0000   1.0000   1.0000   1.0000   1.0000   1.0000   1.0000
     1.0000   1.0000   1.0000   1.0000   1.0000   1.0000   1.0000   1.0000
     1.0000   1.0000   1.0000   1.0000   1.0000   1.0000   1.0000   1.0000
     1.0000   1.0000   1.0000   1.0000   1.0000   1.0000   1.0000   1.0000
     1.0000   1.0000   1.0000   1.0000   1.0000   1.0000   1.0000   1.0000
     1.0000   1.0000   1.0000   1.0000   1.0000   1.0000   1.0000   1.0000
     1.0000   1.0000   1.0000   1.0000   1.0000   1.0000   1.0000   1.0000
     1.0000   1.0000   1.0000   1.0000   1.0000   1.0000   1.0000   1.0000
     1.0000   1.0000   1.0000   1.0000   1.0000   1.0000   1.0000   1.0000
     1.0000   1.0000   1.0000   1.0000   1.0000   1.0000   1.0000   1.0000
     1.0000   1.0000   1.0000   1.0000   1.0000   1.0000   1.0000   1.0000
     1.0000   1.0000   1.0000   1.0000   1.0000   1.0000   1.0000   1.0000
     1.0000   1.0000   1.0000   1.0000   1.0000   1.0000   1.0000   1.0000
     1.0000   1.0000   1.0000   1.0000   1.0000   1.0000   1.0000   1.0000
     1.0000   1.0000   1.0000   1.0000   1.0000   1.0000   1.0000   1.0000
     1.0000   1.0000   1.0000   1.0000   1.0000   1.0000   1.0000   1.0000
     1.0000   1.0000   1.0000   1.0000   1.0000   1.0000   1.0000   1.0000
     1.0000   1.0000   1.0000   1.0000   1.0000   1.0000   1.0000   1.0000
     1.0000   1.0000   1.0000   1.0000   1.0000   1.0000   1.0000   1.0000
     1.0000   1.0000   1.0000   1.0000   1.0000   1.0000   1.0000   1.0000
     1.0000   1.0000   1.0000   1.0000   1.0000   1.0000   1.0000   1.0000
     1.0000   1.0000   1.0000   1.0000   1.0000   1.0000   1.0000   1.0000
     1.0000   1.0000   1.0000   1.0000   1.0000   1.0000   1.0000   1.0000
     1.0000   1.0000   1.0000   1.0000   1.0000   1.0000   1.0000   1.0000
     1.0000   1.0000   1.0000   1.0000   1.0000   1.0000   1.0000   1.0000
     1.0000   1.0000   1.0000   1.0000   1.0000   1.0000   1.0000   1.0000
     1.0000   1.0000   1.0000   1.0000   1.0000   1.0000   1.0000   1.0000
     1.0000   1.0000   1.0000   1.0000   1.0000   1.0000   1.0000   1.0000
     1.0000   1.0000   1.0000   1.0000   1.0000   1.0000   1.0000   1.0001
     1.0001   1.0001   1.0002   1.0002   1.0003   1.0004   1.0005   1.0006
     1.0007   1.0008   1.0012   1.0012   1.0015   1.0018   1.0023   1.0025
     1.0030   1.0033   1.0049   1.0060   1.0073   1.0085   1.0104   1.0137
     1.0146   1.0155   1.0184   1.0245   1.0271   1.0306   1.0390   1.0399
     1.0503   1.0707   1.0780   1.0820   1.0832   1.0811   1.0791   1.0772
     1.0757   1.0737   1.0673   1.0045   0.9984   0.9935   0.9503   0.9243
     0.9007   0.8488   0.8350   0.8162   0.7909   0.6751   0.5591   0.5349
     0.3875   0.3798   0.1320   0.1122   0.0356   0.0326   0.0036   0.0022
     0.0002   0.0000   0.0000   0.0000   0.0000   0.0000   0.0000   0.0000
     0.0000   0.0000   0.0000   0.0000   0.0000   0.0000   0.0000   0.0000
     0.0000   0.0000   0.0000   0.0000   0.0000   0.0000   0.0000   0.0000
     0.0000   0.0000   0.0000   0.0000   0.0000   0.0000   0.0000   0.0000
     0.0000   0.0000   0.0000   0.0000   0.0000   0.0000   0.0000   0.0000
     0.0000   0.0000   0.0000   0.0000   0.0000   0.0000   0.0000   0.0000
     0.0000   0.0000   0.0000   0.0000   0.0000   0.0000   0.0000   0.0000
     0.0000   0.0000   0.0000   0.0000   0.0000   0.0000   0.0000   0.0000
     0.0000   0.0000   0.0000   0.0000   0.0000   0.0000   0.0000   0.0000
     0.0000   0.0000   0.0000   0.0000   0.0000   0.0000   0.0000   0.0000
     0.0000   0.0000   0.0000   0.0000   0.0000   0.0000   0.0000   0.0000
     0.0000   0.0000   0.0000   0.0000   0.0000   0.0000   0.0000   0.0000
     0.0000   0.0000   0.0000   0.0000   0.0000   0.0000   0.0000   0.0000
     0.0000   0.0000   0.0000   0.0000   0.0000   0.0000   0.0000   0.0000
     0.0000   0.0000   0.0000   0.0000   0.0000   0.0000   0.0000   0.0000
     0.0000   0.0000   0.0000   0.0000   0.0000   0.0000   0.0000   0.0000
     0.0000   0.0000   0.0000   0.0000   0.0000   0.0000   0.0000   0.0000
     0.0000   0.0000   0.0000   0.0000   0.0000   0.0000   0.0000   0.0000

 ------ SPIN DOWN ----------


          k = 0.0000 0.0000 0.0000 (320189 PWs)   bands (ev):

   -59.6999 -59.6956 -59.6943 -59.6584 -59.6572 -59.6568 -59.6374 -59.6342
   -59.6339 -59.6332 -59.6302 -59.6298 -59.6255 -59.6252 -59.6245 -59.6132
   -35.8438 -35.8432 -35.8429 -35.8136 -35.8024 -35.7984 -35.7982 -35.7913
   -35.7912 -35.7558 -35.7554 -35.7472 -35.7423 -35.7394 -35.7392 -35.7298
   -35.7294 -35.7271 -35.7246 -35.7174 -35.7130 -35.7128 -35.7100 -35.7091
   -35.6844 -35.6840 -35.6840 -35.6809 -35.6781 -35.6774 -35.6706 -35.6667
   -35.6665 -35.6663 -35.6609 -35.6607 -35.6552 -35.6549 -35.6540 -35.6480
   -35.6477 -35.6467 -35.6437 -35.6412 -35.6409 -35.6353 -35.6340 -35.6340
   -23.8261 -23.3860 -23.3744 -23.3743 -23.3290 -23.3289 -23.3145 -22.7691
   -22.7691 -22.7521 -22.4747 -22.4746 -22.4349 -22.4190 -22.4189 -22.4033
   -22.3973 -22.3665 -22.3664 -22.3645 -22.1878 -22.1878 -22.1792 -22.1751
   -22.1751 -22.1709 -21.9310 -21.8975 -21.8477 -21.8357 -21.8265 -21.8264
   -21.8043 -21.8027 -21.8026 -21.7598 -21.7597 -21.7476 -21.7060 -21.7059
   -21.6949 -21.6855 -21.6855 -21.6629 -21.6554 -21.6553 -21.5608 -21.5606
   -21.5478 -21.5404 -21.5403 -21.5254 -21.5181 -21.5180 -21.4531 -21.4529
   -21.4528 -21.4054 -21.3971 -21.3970 -21.3520 -21.3519 -21.3216 -21.3208
   -21.3208 -21.3182 -21.3182 -21.3171 -21.2926 -21.2901 -21.2104 -21.2104
   -21.2068 -21.2068 -21.1187 -21.1171 -21.1171 -21.1158 -21.1155 -21.1154
   -20.9991 -20.9987 -20.9987 -20.9932 -20.9924 -20.9924 -20.9026 -20.9026
   -20.2652 -20.2650 -20.2646 -20.2645 -20.2642 -20.2642 -19.8244 -19.8238
   -19.8238 -19.8219 -19.8219 -19.8217 -18.9894 -18.9894 -18.9886 -18.9876
   -18.9866 -18.9866 -18.8140 -18.8139 -18.8135 -18.8135 -18.8111 -18.8101
   -17.8906 -17.3825 -17.3741 -17.3736 -17.3466 -17.3462 -17.3253 -16.8855
   -16.8319 -16.7974 -16.7517 -16.7516 -16.7156 -16.7153 -16.6974 -16.6964
   -16.6960 -16.6679 -16.6669 -16.6666 -16.6429 -16.6426 -16.6334 -16.4337
   -16.4176 -16.3985 -16.3983 -16.3707 -16.3706 -16.3679 -16.3619 -16.3618
   -13.0619 -13.0618 -13.0618 -13.0601 -13.0601 -13.0595 -12.2922 -12.2917
   -12.2905 -12.2905 -12.2899 -12.2898 -11.7403 -11.7403 -11.7400 -11.7367
   -11.7367 -11.7367 -11.1161 -11.0752 -11.0722 -11.0721 -11.0465 -11.0464
   -11.0405 -10.8276 -10.8274 -10.8268 -10.8268 -10.8263 -10.8263 -10.7380
   -10.7332 -10.7332 -10.7126 -10.7106 -10.7106 -10.5801 -10.5797 -10.5797
   -10.5780 -10.5780 -10.5773 -10.5630 -10.5549 -10.5347 -10.5346 -10.5330
   -10.5289 -10.5288 -10.5159 -10.5043 -10.5037 -10.5036 -10.3285 -10.3285
   -10.1177 -10.1177 -10.1028 -10.1028 -10.0928 -10.0756 -10.0755 -10.0658
   -10.0644 -10.0643  -9.8040  -9.7184  -9.7174  -9.7173  -9.6941  -9.6940
    -9.6939  -9.6356  -9.5652  -9.5629  -9.4927  -9.4927  -9.3408  -9.3408
    -9.3332  -9.2885  -9.2755  -9.2755  -9.2543  -9.2129  -9.2128  -9.2026
    -9.1560  -9.1559  -9.1504  -9.1503  -9.1503  -9.1480  -9.1480  -9.1479
    -9.0730  -9.0606  -9.0605  -9.0528  -9.0502  -9.0501  -8.9805  -8.9772
    -8.9719  -8.9717  -8.9717  -8.9667  -8.9667  -8.9457  -8.9456  -8.9455
    -8.9359  -8.8491  -8.8490  -8.6777  -8.6777  -8.6657  -8.6654  -8.6646
    -8.6547  -8.6541  -8.6475  -8.6003  -8.5935  -8.5934  -8.5934  -8.5900
    -8.5900  -8.5878  -8.5858  -8.5857  -8.5659  -8.5658  -8.5542  -8.5019
    -8.4919  -8.4919  -8.4914  -8.4888  -8.4887  -8.4887  -8.3858  -8.3856
    -8.3795  -8.3553  -8.3540  -8.3539  -8.3498  -8.3452  -8.3449  -8.3238
    -8.3173  -8.3171  -8.3047  -8.3046  -8.3031  -8.2631  -8.2576  -8.2573
    -8.1907  -8.1891  -8.1891  -8.1856  -8.1856  -8.1841  -8.1714  -8.1670
    -8.1670  -8.1640  -8.0942  -8.0942  -8.0860  -8.0798  -8.0797  -8.0734
    -8.0444  -8.0352  -8.0314  -8.0314  -7.9999  -7.9997  -7.9339  -7.8949
    -7.8946  -7.8894  -7.8721  -7.8719  -7.8603  -7.8551  -7.8464  -7.8464
    -7.8186  -7.8093  -7.8090  -7.7707  -7.7706  -7.7702  -7.7548  -7.7514
    -7.7513  -7.7357  -7.7355  -7.7181  -7.4510  -7.4406  -7.4405  -7.4342
    -7.4340  -7.4239  -7.4004  -7.3920  -7.3919  -7.3773  -7.3620  -7.3606
    -7.3605  -7.3510  -7.3508  -7.3357  -7.3284  -7.3282  -7.2297  -7.2296
    -7.2137  -7.2011  -7.1998  -7.1998  -7.1548  -7.1373  -7.1372  -7.0970
    -7.0970  -7.0951  -7.0709  -7.0707  -7.0706  -7.0339  -7.0138  -7.0101
    -7.0098  -7.0047  -7.0024  -7.0023  -7.0004  -6.9991  -6.9990  -6.9682
    -6.9681  -6.9613  -6.9529  -6.9529  -6.9318  -6.9238  -6.9216  -6.9216
    -6.8814  -6.8812  -6.8689  -6.8671  -6.8669  -6.8537  -6.8340  -6.8335
    -6.8287  -6.8279  -6.8278  -6.8166  -6.8134  -6.8129  -6.8045  -6.8031
    -6.8014  -6.7876  -6.7876  -6.7826  -6.7620  -6.7619  -6.7543  -6.6832
    -6.6831  -6.6829  -6.6623  -6.6623  -6.6566  -6.6450  -6.6449  -6.6291
    -6.6130  -6.6130  -6.5713  -6.5712  -6.5686  -6.5465  -6.5464  -6.5321
    -6.5319  -6.5277  -6.5070  -6.5070  -6.4757  -6.4755  -6.4560  -6.4476
    -6.4054  -6.3892  -6.3892  -6.3762  -6.3740  -6.3740  -6.3586  -6.3583
    -6.3550  -6.3411  -6.3409  -6.3338  -6.1956  -6.1956  -6.1452  -6.1197
    -6.1196  -6.1115  -6.1009  -6.1009  -6.1000  -6.0861  -6.0798  -6.0796
    -6.0671  -6.0671  -6.0535  -6.0394  -6.0394  -6.0332  -6.0331  -6.0181
    -6.0181  -6.0041  -5.9858  -5.9853  -5.9682  -5.9483  -5.9479  -5.9438
    -5.9391  -5.9388  -5.9319  -5.9133  -5.9131  -5.9129  -5.8892  -5.7636
    -5.7635  -5.7518  -5.7393  -5.7391  -5.7280  -5.6953  -5.6684  -5.6684
    -5.6515  -5.6238  -5.6144  -5.6144  -5.5842  -5.5841  -5.5583  -5.5582
    -5.5439  -5.5437  -5.5331  -5.5300  -5.5298  -5.4926  -5.4692  -5.4690
    -5.4582  -5.4505  -5.4504  -5.4354  -5.4286  -5.4081  -5.4080  -5.4000
    -5.3997  -5.3731  -5.3731  -5.3517  -5.3416  -5.3406  -5.3404  -5.3187
    -5.3185  -5.3100  -5.2916  -5.2510  -5.2507  -5.2155  -5.2154  -5.2030
    -5.1858  -5.1858  -5.1575  -5.1573  -5.1529  -5.1485  -5.1299  -5.1192
    -5.1153  -5.1152  -5.1086  -5.0983  -5.0980  -5.0730  -5.0596  -5.0596
    -5.0105  -4.9908  -4.9904  -4.9763  -4.9530  -4.9528  -4.7759  -4.7759
    -4.7738  -4.7716  -4.7716  -4.7683  -4.7628  -4.7628  -4.5713  -4.5712
    -4.5690  -4.5216  -4.5216  -4.4776  -4.4595  -4.4595  -4.4540  -4.4538
    -4.4535  -4.4353  -4.4349  -4.4303  -4.4183  -4.4122  -4.4116  -4.0654
    -3.7462  -3.7457  -3.7457  -3.7375  -3.7375  -3.7367  -3.5968  -3.5968
    -3.5775  -2.3173  -2.3167  -2.3161  -2.2849  -2.2844  -2.2802  -2.2511
    -2.2509  -2.2286  -2.0773  -2.0771  -2.0675  -2.0541  -2.0538  -2.0147
    -1.9669  -1.9625  -1.9588  -1.9576  -1.9384  -1.9384  -1.8858  -1.8853
    -1.8828  -1.8401  -1.8341  -1.7565  -1.7562  -1.7129  -1.7095  -1.7092
    -1.7037  -1.7032  -1.6753  -1.6750  -1.6734  -1.6563  -1.6558  -1.4835
    -1.4833  -1.3615  -1.3513  -1.2214  -1.2205  -1.2135  -1.2125  -1.0616
    -0.8456  -0.8443  -0.8436  -0.8411  -0.8371  -0.8368  -0.8137  -0.8136
    -0.8091  -0.4722  -0.4708  -0.4707  -0.4690  -0.4690  -0.4683  -0.3742
    -0.3374  -0.3209  -0.3202  -0.2840  -0.2764  -0.2763  -0.2589  -0.2588
    -0.0917   0.0711   0.0711   0.1279   0.1309   0.1325   0.1326   0.1418
     0.1418   0.1863   0.1866   0.3187   0.3209   0.3210   0.3555   0.3556
     0.3556   0.5640   0.5994   0.6011   0.6012   0.6031   0.6031   0.6033
     0.7032   0.8256   0.8261   0.9659   1.1076   1.3250   1.3254   1.3711
     1.3997   1.4283   1.4283   1.4472   1.5056   1.5057   1.5208   1.5378
     1.5850   1.5852   1.6185   1.6185   1.7063   1.7382   1.7384   1.8415
     1.8525   1.8526   1.8580   1.8589   1.8589   1.8759   1.9077   1.9077
     2.0897   2.1543   2.2211   2.2212   2.2389   2.2395   2.2428   2.3230

     occupation numbers 
     1.0000   1.0000   1.0000   1.0000   1.0000   1.0000   1.0000   1.0000
     1.0000   1.0000   1.0000   1.0000   1.0000   1.0000   1.0000   1.0000
     1.0000   1.0000   1.0000   1.0000   1.0000   1.0000   1.0000   1.0000
     1.0000   1.0000   1.0000   1.0000   1.0000   1.0000   1.0000   1.0000
     1.0000   1.0000   1.0000   1.0000   1.0000   1.0000   1.0000   1.0000
     1.0000   1.0000   1.0000   1.0000   1.0000   1.0000   1.0000   1.0000
     1.0000   1.0000   1.0000   1.0000   1.0000   1.0000   1.0000   1.0000
     1.0000   1.0000   1.0000   1.0000   1.0000   1.0000   1.0000   1.0000
     1.0000   1.0000   1.0000   1.0000   1.0000   1.0000   1.0000   1.0000
     1.0000   1.0000   1.0000   1.0000   1.0000   1.0000   1.0000   1.0000
     1.0000   1.0000   1.0000   1.0000   1.0000   1.0000   1.0000   1.0000
     1.0000   1.0000   1.0000   1.0000   1.0000   1.0000   1.0000   1.0000
     1.0000   1.0000   1.0000   1.0000   1.0000   1.0000   1.0000   1.0000
     1.0000   1.0000   1.0000   1.0000   1.0000   1.0000   1.0000   1.0000
     1.0000   1.0000   1.0000   1.0000   1.0000   1.0000   1.0000   1.0000
     1.0000   1.0000   1.0000   1.0000   1.0000   1.0000   1.0000   1.0000
     1.0000   1.0000   1.0000   1.0000   1.0000   1.0000   1.0000   1.0000
     1.0000   1.0000   1.0000   1.0000   1.0000   1.0000   1.0000   1.0000
     1.0000   1.0000   1.0000   1.0000   1.0000   1.0000   1.0000   1.0000
     1.0000   1.0000   1.0000   1.0000   1.0000   1.0000   1.0000   1.0000
     1.0000   1.0000   1.0000   1.0000   1.0000   1.0000   1.0000   1.0000
     1.0000   1.0000   1.0000   1.0000   1.0000   1.0000   1.0000   1.0000
     1.0000   1.0000   1.0000   1.0000   1.0000   1.0000   1.0000   1.0000
     1.0000   1.0000   1.0000   1.0000   1.0000   1.0000   1.0000   1.0000
     1.0000   1.0000   1.0000   1.0000   1.0000   1.0000   1.0000   1.0000
     1.0000   1.0000   1.0000   1.0000   1.0000   1.0000   1.0000   1.0000
     1.0000   1.0000   1.0000   1.0000   1.0000   1.0000   1.0000   1.0000
     1.0000   1.0000   1.0000   1.0000   1.0000   1.0000   1.0000   1.0000
     1.0000   1.0000   1.0000   1.0000   1.0000   1.0000   1.0000   1.0000
     1.0000   1.0000   1.0000   1.0000   1.0000   1.0000   1.0000   1.0000
     1.0000   1.0000   1.0000   1.0000   1.0000   1.0000   1.0000   1.0000
     1.0000   1.0000   1.0000   1.0000   1.0000   1.0000   1.0000   1.0000
     1.0000   1.0000   1.0000   1.0000   1.0000   1.0000   1.0000   1.0000
     1.0000   1.0000   1.0000   1.0000   1.0000   1.0000   1.0000   1.0000
     1.0000   1.0000   1.0000   1.0000   1.0000   1.0000   1.0000   1.0000
     1.0000   1.0000   1.0000   1.0000   1.0000   1.0000   1.0000   1.0000
     1.0000   1.0000   1.0000   1.0000   1.0000   1.0000   1.0000   1.0000
     1.0000   1.0000   1.0000   1.0000   1.0000   1.0000   1.0000   1.0000
     1.0000   1.0000   1.0000   1.0000   1.0000   1.0000   1.0000   1.0000
     1.0000   1.0000   1.0000   1.0000   1.0000   1.0000   1.0000   1.0000
     1.0000   1.0000   1.0000   1.0000   1.0000   1.0000   1.0000   1.0000
     1.0000   1.0000   1.0000   1.0000   1.0000   1.0000   1.0000   1.0000
     1.0000   1.0000   1.0000   1.0000   1.0000   1.0000   1.0000   1.0000
     1.0000   1.0000   1.0000   1.0000   1.0000   1.0000   1.0000   1.0000
     1.0000   1.0000   1.0000   1.0000   1.0000   1.0000   1.0000   1.0000
     1.0000   1.0000   1.0000   1.0000   1.0000   1.0000   1.0000   1.0000
     1.0000   1.0000   1.0000   1.0000   1.0000   1.0000   1.0000   1.0000
     1.0000   1.0000   1.0000   1.0000   1.0000   1.0000   1.0000   1.0000
     1.0000   1.0000   1.0000   1.0000   1.0000   1.0000   1.0000   1.0000
     1.0000   1.0000   1.0000   1.0000   1.0000   1.0000   1.0000   1.0000
     1.0000   1.0000   1.0000   1.0000   1.0000   1.0000   1.0000   1.0000
     1.0000   1.0000   1.0000   1.0000   1.0000   1.0000   1.0000   1.0000
     1.0000   1.0000   1.0000   1.0000   1.0000   1.0000   1.0000   1.0000
     1.0000   1.0000   1.0000   1.0000   1.0000   1.0000   1.0000   1.0000
     1.0000   1.0000   1.0000   1.0000   1.0000   1.0000   1.0000   1.0000
     1.0000   1.0000   1.0000   1.0000   1.0000   1.0000   1.0000   1.0000
     1.0000   1.0000   1.0000   1.0000   1.0000   1.0000   1.0000   1.0000
     1.0000   1.0000   1.0000   1.0000   1.0000   1.0000   1.0000   1.0000
     1.0000   1.0000   1.0000   1.0000   1.0000   1.0000   1.0000   1.0000
     1.0000   1.0000   1.0000   1.0000   1.0000   1.0000   1.0000   1.0000
     1.0000   1.0000   1.0000   1.0000   1.0000   1.0000   1.0000   1.0000
     1.0000   1.0000   1.0000   1.0000   1.0000   1.0000   1.0000   1.0000
     1.0000   1.0000   1.0000   1.0000   1.0000   1.0000   1.0000   1.0000
     1.0000   1.0000   1.0000   1.0000   1.0000   1.0000   1.0000   1.0000
     1.0000   1.0000   1.0000   1.0000   1.0000   1.0000   1.0000   1.0000
     1.0000   1.0000   1.0000   1.0000   1.0000   1.0000   1.0000   1.0000
     1.0000   1.0000   1.0000   1.0000   1.0000   1.0000   1.0000   1.0000
     1.0000   1.0000   1.0000   1.0000   1.0000   1.0000   1.0000   1.0000
     1.0000   1.0000   1.0000   1.0000   1.0000   1.0000   1.0000   1.0000
     1.0000   1.0000   1.0000   1.0000   1.0000   1.0000   1.0000   1.0000
     1.0000   1.0000   1.0000   1.0000   1.0000   1.0000   1.0000   1.0000
     1.0000   1.0000   1.0000   1.0000   1.0000   1.0000   1.0000   1.0000
     1.0000   1.0000   1.0000   1.0000   1.0000   1.0000   1.0000   1.0000
     1.0000   1.0000   1.0000   1.0001   1.0001   1.0001   1.0001   1.0001
     1.0001   1.0002   1.0002   1.0003   1.0004   1.0004   1.0004   1.0006
     1.0006   1.0007   1.0009   1.0018   1.0018   1.0032   1.0032   1.0038
     1.0049   1.0049   1.0071   1.0072   1.0076   1.0080   1.0101   1.0116
     1.0121   1.0121   1.0131   1.0148   1.0148   1.0195   1.0224   1.0224
     1.0354   1.0415   1.0417   1.0463   1.0543   1.0544   1.0709   1.0709
     1.0699   1.0688   1.0688   1.0670   1.0638   1.0638   0.7351   0.7349
     0.7289   0.5995   0.5994   0.4788   0.4313   0.4311   0.4169   0.4165
     0.4158   0.3703   0.3695   0.3584   0.3301   0.3164   0.3150   0.0060
     0.0000   0.0000   0.0000   0.0000   0.0000   0.0000   0.0000   0.0000
     0.0000   0.0000   0.0000   0.0000   0.0000   0.0000   0.0000   0.0000
     0.0000   0.0000   0.0000   0.0000   0.0000   0.0000   0.0000   0.0000
     0.0000   0.0000   0.0000   0.0000   0.0000   0.0000   0.0000   0.0000
     0.0000   0.0000   0.0000   0.0000   0.0000   0.0000   0.0000   0.0000
     0.0000   0.0000   0.0000   0.0000   0.0000   0.0000   0.0000   0.0000
     0.0000   0.0000   0.0000   0.0000   0.0000   0.0000   0.0000   0.0000
     0.0000   0.0000   0.0000   0.0000   0.0000   0.0000   0.0000   0.0000
     0.0000   0.0000   0.0000   0.0000   0.0000   0.0000   0.0000   0.0000
     0.0000   0.0000   0.0000   0.0000   0.0000   0.0000   0.0000   0.0000
     0.0000   0.0000   0.0000   0.0000   0.0000   0.0000   0.0000   0.0000
     0.0000   0.0000   0.0000   0.0000   0.0000   0.0000   0.0000   0.0000
     0.0000   0.0000   0.0000   0.0000   0.0000   0.0000   0.0000   0.0000
     0.0000   0.0000   0.0000   0.0000   0.0000   0.0000   0.0000   0.0000
     0.0000   0.0000   0.0000   0.0000   0.0000   0.0000   0.0000   0.0000
     0.0000   0.0000   0.0000   0.0000   0.0000   0.0000   0.0000   0.0000
     0.0000   0.0000   0.0000   0.0000   0.0000   0.0000   0.0000   0.0000
     0.0000   0.0000   0.0000   0.0000   0.0000   0.0000   0.0000   0.0000

          k = 0.0000 0.3849 0.0000 (319990 PWs)   bands (ev):

   -59.6999 -59.6956 -59.6943 -59.6584 -59.6572 -59.6568 -59.6371 -59.6354
   -59.6339 -59.6320 -59.6304 -59.6299 -59.6256 -59.6253 -59.6244 -59.6132
   -35.8405 -35.8389 -35.8362 -35.8165 -35.8063 -35.8009 -35.8002 -35.7863
   -35.7855 -35.7810 -35.7689 -35.7601 -35.7483 -35.7425 -35.7326 -35.7267
   -35.7256 -35.7244 -35.7164 -35.7101 -35.7094 -35.7056 -35.6998 -35.6923
   -35.6863 -35.6849 -35.6841 -35.6827 -35.6785 -35.6779 -35.6741 -35.6691
   -35.6684 -35.6630 -35.6606 -35.6593 -35.6586 -35.6556 -35.6532 -35.6493
   -35.6481 -35.6473 -35.6430 -35.6425 -35.6414 -35.6407 -35.6351 -35.6349
   -23.7719 -23.6088 -23.4523 -23.4448 -23.1702 -23.1644 -23.0431 -22.9253
   -22.9247 -22.7089 -22.5892 -22.5696 -22.4914 -22.4874 -22.4609 -22.4504
   -22.3947 -22.3936 -22.2095 -22.2044 -22.1918 -22.1877 -22.1011 -22.0334
   -22.0303 -21.9907 -21.9814 -21.9216 -21.9125 -21.9042 -21.8983 -21.8651
   -21.8321 -21.8320 -21.8256 -21.8045 -21.7739 -21.7635 -21.7445 -21.7158
   -21.7088 -21.6869 -21.6766 -21.6693 -21.6371 -21.6144 -21.5923 -21.5876
   -21.5786 -21.5254 -21.5147 -21.4963 -21.4846 -21.4784 -21.4693 -21.4569
   -21.4454 -21.4453 -21.4441 -21.4294 -21.4225 -21.4010 -21.3838 -21.3735
   -21.3682 -21.3513 -21.3380 -21.2613 -21.2226 -21.2209 -21.1796 -21.1767
   -21.1141 -21.1130 -21.0724 -21.0718 -21.0580 -21.0555 -21.0355 -21.0343
   -21.0220 -21.0036 -20.9972 -20.9946 -20.9551 -20.9280 -20.9180 -20.8916
   -20.7146 -20.7132 -20.3777 -20.2168 -20.2091 -20.0665 -20.0566 -19.7666
   -19.7552 -19.5359 -19.5053 -19.3130 -19.2965 -19.2424 -19.2386 -19.1487
   -19.0125 -18.9887 -18.9404 -18.8761 -18.8322 -18.7836 -18.5877 -18.5741
   -17.8240 -17.6338 -17.4657 -17.4559 -17.1795 -17.1723 -17.0594 -16.9614
   -16.9528 -16.8561 -16.8175 -16.7770 -16.7725 -16.7468 -16.7305 -16.6995
   -16.6975 -16.6911 -16.6118 -16.6094 -16.5771 -16.5759 -16.5288 -16.4857
   -16.4818 -16.4241 -16.4039 -16.3936 -16.3832 -16.3652 -16.3235 -16.3223
   -13.2322 -13.1086 -12.9869 -12.8427 -12.7454 -12.6561 -12.6203 -12.5016
   -12.4223 -12.3780 -12.3755 -12.3586 -12.2023 -12.0226 -11.8982 -11.6090
   -11.3651 -11.3053 -11.2804 -11.2361 -11.1291 -11.0766 -11.0496 -11.0086
   -11.0052 -11.0010 -10.9435 -10.9398 -10.9365 -10.8179 -10.7711 -10.7622
   -10.7343 -10.7233 -10.7191 -10.7158 -10.6894 -10.6279 -10.6250 -10.6086
   -10.6029 -10.5741 -10.5533 -10.5529 -10.5032 -10.4887 -10.4253 -10.4165
   -10.3945 -10.3526 -10.3201 -10.2879 -10.2678 -10.2393 -10.2248 -10.2054
   -10.1908 -10.1668 -10.1201 -10.0867 -10.0756 -10.0440 -10.0311  -9.9165
    -9.8431  -9.8090  -9.7749  -9.7713  -9.7209  -9.7073  -9.6791  -9.6308
    -9.6225  -9.6098  -9.5978  -9.5936  -9.5551  -9.4670  -9.4204  -9.4137
    -9.4062  -9.3576  -9.3543  -9.3386  -9.2950  -9.2888  -9.2762  -9.2693
    -9.2255  -9.2026  -9.1912  -9.1832  -9.1749  -9.1711  -9.1318  -9.1073
    -9.1065  -9.0995  -9.0849  -9.0768  -9.0628  -9.0557  -9.0395  -9.0213
    -8.9957  -8.9640  -8.9585  -8.9484  -8.9431  -8.9274  -8.9239  -8.8999
    -8.8784  -8.8682  -8.8438  -8.8327  -8.8311  -8.8145  -8.8040  -8.7886
    -8.7825  -8.7656  -8.7402  -8.7260  -8.7250  -8.7218  -8.7098  -8.7066
    -8.7023  -8.6750  -8.6387  -8.6231  -8.6182  -8.6035  -8.5622  -8.5569
    -8.5480  -8.5406  -8.5221  -8.5153  -8.5045  -8.4693  -8.4571  -8.4509
    -8.4481  -8.4363  -8.4299  -8.3939  -8.3379  -8.3356  -8.3258  -8.3140
    -8.3058  -8.2740  -8.2720  -8.2547  -8.2249  -8.2232  -8.2139  -8.2086
    -8.1846  -8.1625  -8.1588  -8.1464  -8.1424  -8.1363  -8.1304  -8.1132
    -8.1018  -8.0989  -8.0726  -8.0693  -8.0477  -8.0361  -7.9994  -7.9856
    -7.9682  -7.9585  -7.9347  -7.9246  -7.8880  -7.8676  -7.8644  -7.8598
    -7.8457  -7.8439  -7.8364  -7.8166  -7.8051  -7.7873  -7.7779  -7.7698
    -7.7611  -7.7370  -7.7275  -7.7187  -7.7045  -7.6862  -7.6759  -7.6561
    -7.6535  -7.6460  -7.6359  -7.6294  -7.6267  -7.5812  -7.5756  -7.5351
    -7.5281  -7.4984  -7.4726  -7.4526  -7.4378  -7.4324  -7.4272  -7.4202
    -7.3782  -7.3553  -7.3479  -7.3397  -7.3253  -7.3162  -7.3071  -7.2956
    -7.2905  -7.2885  -7.2739  -7.2520  -7.2463  -7.2229  -7.2182  -7.2070
    -7.1897  -7.1593  -7.1300  -7.1191  -7.1144  -7.1084  -7.1021  -7.0958
    -7.0893  -7.0620  -7.0473  -7.0402  -7.0041  -6.9974  -6.9899  -6.9841
    -6.9620  -6.9392  -6.9310  -6.9262  -6.9217  -6.9118  -6.9001  -6.8946
    -6.8910  -6.8795  -6.8761  -6.8670  -6.8621  -6.8553  -6.8518  -6.8430
    -6.8344  -6.8306  -6.8243  -6.8218  -6.8094  -6.7969  -6.7823  -6.7503
    -6.7412  -6.7338  -6.7065  -6.6938  -6.6742  -6.6609  -6.6540  -6.6512
    -6.6408  -6.6067  -6.5989  -6.5833  -6.5587  -6.5554  -6.5441  -6.5300
    -6.5205  -6.5166  -6.5149  -6.4892  -6.4790  -6.4733  -6.4708  -6.4548
    -6.4512  -6.4423  -6.4359  -6.4127  -6.4022  -6.3966  -6.3837  -6.3448
    -6.3330  -6.3257  -6.3225  -6.3190  -6.3142  -6.3014  -6.2956  -6.2904
    -6.2682  -6.2648  -6.2500  -6.2392  -6.2341  -6.2148  -6.2013  -6.1805
    -6.1673  -6.1480  -6.1426  -6.1375  -6.1227  -6.1173  -6.1116  -6.0936
    -6.0815  -6.0769  -6.0635  -6.0569  -6.0472  -6.0417  -6.0290  -6.0156
    -6.0062  -5.9920  -5.9876  -5.9818  -5.9726  -5.9668  -5.9524  -5.9451
    -5.9395  -5.9336  -5.9210  -5.9145  -5.8999  -5.8935  -5.8760  -5.8628
    -5.8435  -5.8239  -5.8105  -5.8030  -5.7951  -5.7593  -5.7515  -5.7422
    -5.7291  -5.7102  -5.6983  -5.6869  -5.6737  -5.6630  -5.6538  -5.6382
    -5.6272  -5.6176  -5.6061  -5.5981  -5.5927  -5.5775  -5.5547  -5.5394
    -5.5270  -5.5024  -5.4984  -5.4864  -5.4796  -5.4640  -5.4523  -5.4233
    -5.4180  -5.3909  -5.3776  -5.3689  -5.3587  -5.3385  -5.3257  -5.3164
    -5.3069  -5.3013  -5.2787  -5.2746  -5.2646  -5.2506  -5.2351  -5.2301
    -5.2197  -5.2117  -5.1851  -5.1701  -5.1552  -5.1441  -5.1281  -5.1046
    -5.0993  -5.0944  -5.0784  -5.0507  -5.0401  -5.0270  -4.9986  -4.9961
    -4.9645  -4.9036  -4.8758  -4.8532  -4.8396  -4.8075  -4.7985  -4.7919
    -4.7873  -4.7822  -4.7685  -4.7014  -4.6961  -4.6934  -4.6666  -4.6518
    -4.6405  -4.6161  -4.6104  -4.6026  -4.5926  -4.5490  -4.5064  -4.4972
    -4.4420  -4.4384  -4.3070  -4.2907  -4.1889  -4.1828  -4.0321  -4.0049
    -3.8685  -3.7881  -3.7876  -3.6824  -3.6747  -3.6743  -3.6470  -3.6178
    -3.6175  -2.6400  -2.6341  -2.3020  -2.2767  -2.2635  -2.2472  -2.2442
    -2.2056  -2.1978  -2.1687  -2.1443  -2.1321  -2.0962  -2.0809  -1.9977
    -1.9961  -1.9733  -1.9591  -1.9521  -1.9426  -1.9270  -1.9220  -1.9055
    -1.8884  -1.8842  -1.8671  -1.8525  -1.8475  -1.8417  -1.7862  -1.7736
    -1.7669  -1.6630  -1.6146  -1.6104  -1.5848  -1.5715  -1.5117  -1.5081
    -1.3434  -1.3339  -1.2902  -1.2251  -1.1298  -1.1179  -1.0558  -1.0540
    -0.9708  -0.9329  -0.8881  -0.8853  -0.8472  -0.8407  -0.7305  -0.5684
    -0.5604  -0.5404  -0.5400  -0.5248  -0.4508  -0.4354  -0.4310  -0.4092
    -0.3789  -0.3777  -0.3763  -0.3575  -0.3409  -0.3186  -0.2985  -0.2826
    -0.2129  -0.2120  -0.0227   0.0158   0.0448   0.0527   0.0911   0.1824
     0.2856   0.3004   0.3823   0.4792   0.6267   0.6312   0.6567   0.6930
     0.6980   0.7050   0.7259   0.7322   0.7425   0.7576   0.7992   0.8098
     0.8750   0.9027   0.9328   0.9687   1.0206   1.0329   1.1172   1.2215
     1.2287   1.2464   1.2565   1.2575   1.2718   1.3047   1.3224   1.3352
     1.4111   1.4138   1.5553   1.6618   1.6833   1.6920   1.6968   1.7005
     1.7367   1.7899   1.8250   1.8271   1.8518   1.8798   1.8959   1.9623
     2.0176   2.0538   2.0977   2.1362   2.1391   2.1411   2.1472   2.1628

     occupation numbers 
     1.0000   1.0000   1.0000   1.0000   1.0000   1.0000   1.0000   1.0000
     1.0000   1.0000   1.0000   1.0000   1.0000   1.0000   1.0000   1.0000
     1.0000   1.0000   1.0000   1.0000   1.0000   1.0000   1.0000   1.0000
     1.0000   1.0000   1.0000   1.0000   1.0000   1.0000   1.0000   1.0000
     1.0000   1.0000   1.0000   1.0000   1.0000   1.0000   1.0000   1.0000
     1.0000   1.0000   1.0000   1.0000   1.0000   1.0000   1.0000   1.0000
     1.0000   1.0000   1.0000   1.0000   1.0000   1.0000   1.0000   1.0000
     1.0000   1.0000   1.0000   1.0000   1.0000   1.0000   1.0000   1.0000
     1.0000   1.0000   1.0000   1.0000   1.0000   1.0000   1.0000   1.0000
     1.0000   1.0000   1.0000   1.0000   1.0000   1.0000   1.0000   1.0000
     1.0000   1.0000   1.0000   1.0000   1.0000   1.0000   1.0000   1.0000
     1.0000   1.0000   1.0000   1.0000   1.0000   1.0000   1.0000   1.0000
     1.0000   1.0000   1.0000   1.0000   1.0000   1.0000   1.0000   1.0000
     1.0000   1.0000   1.0000   1.0000   1.0000   1.0000   1.0000   1.0000
     1.0000   1.0000   1.0000   1.0000   1.0000   1.0000   1.0000   1.0000
     1.0000   1.0000   1.0000   1.0000   1.0000   1.0000   1.0000   1.0000
     1.0000   1.0000   1.0000   1.0000   1.0000   1.0000   1.0000   1.0000
     1.0000   1.0000   1.0000   1.0000   1.0000   1.0000   1.0000   1.0000
     1.0000   1.0000   1.0000   1.0000   1.0000   1.0000   1.0000   1.0000
     1.0000   1.0000   1.0000   1.0000   1.0000   1.0000   1.0000   1.0000
     1.0000   1.0000   1.0000   1.0000   1.0000   1.0000   1.0000   1.0000
     1.0000   1.0000   1.0000   1.0000   1.0000   1.0000   1.0000   1.0000
     1.0000   1.0000   1.0000   1.0000   1.0000   1.0000   1.0000   1.0000
     1.0000   1.0000   1.0000   1.0000   1.0000   1.0000   1.0000   1.0000
     1.0000   1.0000   1.0000   1.0000   1.0000   1.0000   1.0000   1.0000
     1.0000   1.0000   1.0000   1.0000   1.0000   1.0000   1.0000   1.0000
     1.0000   1.0000   1.0000   1.0000   1.0000   1.0000   1.0000   1.0000
     1.0000   1.0000   1.0000   1.0000   1.0000   1.0000   1.0000   1.0000
     1.0000   1.0000   1.0000   1.0000   1.0000   1.0000   1.0000   1.0000
     1.0000   1.0000   1.0000   1.0000   1.0000   1.0000   1.0000   1.0000
     1.0000   1.0000   1.0000   1.0000   1.0000   1.0000   1.0000   1.0000
     1.0000   1.0000   1.0000   1.0000   1.0000   1.0000   1.0000   1.0000
     1.0000   1.0000   1.0000   1.0000   1.0000   1.0000   1.0000   1.0000
     1.0000   1.0000   1.0000   1.0000   1.0000   1.0000   1.0000   1.0000
     1.0000   1.0000   1.0000   1.0000   1.0000   1.0000   1.0000   1.0000
     1.0000   1.0000   1.0000   1.0000   1.0000   1.0000   1.0000   1.0000
     1.0000   1.0000   1.0000   1.0000   1.0000   1.0000   1.0000   1.0000
     1.0000   1.0000   1.0000   1.0000   1.0000   1.0000   1.0000   1.0000
     1.0000   1.0000   1.0000   1.0000   1.0000   1.0000   1.0000   1.0000
     1.0000   1.0000   1.0000   1.0000   1.0000   1.0000   1.0000   1.0000
     1.0000   1.0000   1.0000   1.0000   1.0000   1.0000   1.0000   1.0000
     1.0000   1.0000   1.0000   1.0000   1.0000   1.0000   1.0000   1.0000
     1.0000   1.0000   1.0000   1.0000   1.0000   1.0000   1.0000   1.0000
     1.0000   1.0000   1.0000   1.0000   1.0000   1.0000   1.0000   1.0000
     1.0000   1.0000   1.0000   1.0000   1.0000   1.0000   1.0000   1.0000
     1.0000   1.0000   1.0000   1.0000   1.0000   1.0000   1.0000   1.0000
     1.0000   1.0000   1.0000   1.0000   1.0000   1.0000   1.0000   1.0000
     1.0000   1.0000   1.0000   1.0000   1.0000   1.0000   1.0000   1.0000
     1.0000   1.0000   1.0000   1.0000   1.0000   1.0000   1.0000   1.0000
     1.0000   1.0000   1.0000   1.0000   1.0000   1.0000   1.0000   1.0000
     1.0000   1.0000   1.0000   1.0000   1.0000   1.0000   1.0000   1.0000
     1.0000   1.0000   1.0000   1.0000   1.0000   1.0000   1.0000   1.0000
     1.0000   1.0000   1.0000   1.0000   1.0000   1.0000   1.0000   1.0000
     1.0000   1.0000   1.0000   1.0000   1.0000   1.0000   1.0000   1.0000
     1.0000   1.0000   1.0000   1.0000   1.0000   1.0000   1.0000   1.0000
     1.0000   1.0000   1.0000   1.0000   1.0000   1.0000   1.0000   1.0000
     1.0000   1.0000   1.0000   1.0000   1.0000   1.0000   1.0000   1.0000
     1.0000   1.0000   1.0000   1.0000   1.0000   1.0000   1.0000   1.0000
     1.0000   1.0000   1.0000   1.0000   1.0000   1.0000   1.0000   1.0000
     1.0000   1.0000   1.0000   1.0000   1.0000   1.0000   1.0000   1.0000
     1.0000   1.0000   1.0000   1.0000   1.0000   1.0000   1.0000   1.0000
     1.0000   1.0000   1.0000   1.0000   1.0000   1.0000   1.0000   1.0000
     1.0000   1.0000   1.0000   1.0000   1.0000   1.0000   1.0000   1.0000
     1.0000   1.0000   1.0000   1.0000   1.0000   1.0000   1.0000   1.0000
     1.0000   1.0000   1.0000   1.0000   1.0000   1.0000   1.0000   1.0000
     1.0000   1.0000   1.0000   1.0000   1.0000   1.0000   1.0000   1.0000
     1.0000   1.0000   1.0000   1.0000   1.0000   1.0000   1.0000   1.0000
     1.0000   1.0000   1.0000   1.0000   1.0000   1.0000   1.0000   1.0000
     1.0000   1.0000   1.0000   1.0000   1.0000   1.0000   1.0000   1.0000
     1.0000   1.0000   1.0000   1.0000   1.0000   1.0000   1.0000   1.0000
     1.0000   1.0000   1.0000   1.0000   1.0000   1.0000   1.0000   1.0000
     1.0000   1.0000   1.0000   1.0000   1.0000   1.0000   1.0000   1.0000
     1.0000   1.0000   1.0000   1.0000   1.0000   1.0000   1.0000   1.0000
     1.0000   1.0000   1.0000   1.0000   1.0000   1.0000   1.0000   1.0001
     1.0001   1.0001   1.0002   1.0002   1.0003   1.0004   1.0005   1.0006
     1.0007   1.0008   1.0012   1.0012   1.0015   1.0018   1.0023   1.0025
     1.0030   1.0033   1.0049   1.0060   1.0074   1.0085   1.0104   1.0137
     1.0146   1.0154   1.0184   1.0245   1.0271   1.0306   1.0391   1.0399
     1.0503   1.0707   1.0781   1.0820   1.0831   1.0811   1.0791   1.0772
     1.0757   1.0737   1.0671   1.0044   0.9972   0.9932   0.9503   0.9227
     0.9001   0.8467   0.8332   0.8145   0.7898   0.6750   0.5573   0.5320
     0.3869   0.3781   0.1311   0.1116   0.0351   0.0325   0.0035   0.0022
     0.0002   0.0000   0.0000   0.0000   0.0000   0.0000   0.0000   0.0000
     0.0000   0.0000   0.0000   0.0000   0.0000   0.0000   0.0000   0.0000
     0.0000   0.0000   0.0000   0.0000   0.0000   0.0000   0.0000   0.0000
     0.0000   0.0000   0.0000   0.0000   0.0000   0.0000   0.0000   0.0000
     0.0000   0.0000   0.0000   0.0000   0.0000   0.0000   0.0000   0.0000
     0.0000   0.0000   0.0000   0.0000   0.0000   0.0000   0.0000   0.0000
     0.0000   0.0000   0.0000   0.0000   0.0000   0.0000   0.0000   0.0000
     0.0000   0.0000   0.0000   0.0000   0.0000   0.0000   0.0000   0.0000
     0.0000   0.0000   0.0000   0.0000   0.0000   0.0000   0.0000   0.0000
     0.0000   0.0000   0.0000   0.0000   0.0000   0.0000   0.0000   0.0000
     0.0000   0.0000   0.0000   0.0000   0.0000   0.0000   0.0000   0.0000
     0.0000   0.0000   0.0000   0.0000   0.0000   0.0000   0.0000   0.0000
     0.0000   0.0000   0.0000   0.0000   0.0000   0.0000   0.0000   0.0000
     0.0000   0.0000   0.0000   0.0000   0.0000   0.0000   0.0000   0.0000
     0.0000   0.0000   0.0000   0.0000   0.0000   0.0000   0.0000   0.0000
     0.0000   0.0000   0.0000   0.0000   0.0000   0.0000   0.0000   0.0000
     0.0000   0.0000   0.0000   0.0000   0.0000   0.0000   0.0000   0.0000
     0.0000   0.0000   0.0000   0.0000   0.0000   0.0000   0.0000   0.0000

          k = 0.3333 0.1925 0.0000 (319990 PWs)   bands (ev):

   -59.6999 -59.6956 -59.6943 -59.6584 -59.6573 -59.6567 -59.6371 -59.6353
   -59.6339 -59.6321 -59.6303 -59.6299 -59.6256 -59.6253 -59.6244 -59.6132
   -35.8402 -35.8393 -35.8361 -35.8164 -35.8066 -35.8007 -35.8003 -35.7862
   -35.7857 -35.7809 -35.7688 -35.7600 -35.7484 -35.7427 -35.7325 -35.7263
   -35.7257 -35.7244 -35.7168 -35.7103 -35.7091 -35.7053 -35.6999 -35.6923
   -35.6864 -35.6848 -35.6842 -35.6827 -35.6787 -35.6776 -35.6740 -35.6691
   -35.6684 -35.6631 -35.6605 -35.6594 -35.6586 -35.6557 -35.6533 -35.6494
   -35.6478 -35.6473 -35.6432 -35.6425 -35.6414 -35.6406 -35.6352 -35.6349
   -23.7719 -23.6088 -23.4523 -23.4448 -23.1702 -23.1644 -23.0431 -22.9253
   -22.9247 -22.7089 -22.5891 -22.5696 -22.4913 -22.4875 -22.4608 -22.4504
   -22.3948 -22.3936 -22.2095 -22.2044 -22.1917 -22.1878 -22.1011 -22.0334
   -22.0303 -21.9907 -21.9814 -21.9216 -21.9125 -21.9042 -21.8983 -21.8651
   -21.8321 -21.8320 -21.8256 -21.8046 -21.7738 -21.7635 -21.7445 -21.7158
   -21.7087 -21.6870 -21.6766 -21.6692 -21.6371 -21.6144 -21.5923 -21.5875
   -21.5785 -21.5254 -21.5146 -21.4964 -21.4845 -21.4784 -21.4693 -21.4570
   -21.4455 -21.4453 -21.4440 -21.4294 -21.4225 -21.4010 -21.3838 -21.3735
   -21.3682 -21.3512 -21.3381 -21.2613 -21.2226 -21.2209 -21.1796 -21.1767
   -21.1141 -21.1130 -21.0724 -21.0718 -21.0580 -21.0555 -21.0355 -21.0343
   -21.0220 -21.0036 -20.9972 -20.9946 -20.9551 -20.9280 -20.9180 -20.8916
   -20.7146 -20.7132 -20.3777 -20.2168 -20.2091 -20.0665 -20.0566 -19.7666
   -19.7552 -19.5359 -19.5053 -19.3130 -19.2965 -19.2424 -19.2385 -19.1487
   -19.0125 -18.9887 -18.9404 -18.8761 -18.8322 -18.7836 -18.5877 -18.5741
   -17.8240 -17.6338 -17.4658 -17.4559 -17.1794 -17.1724 -17.0594 -16.9613
   -16.9529 -16.8561 -16.8176 -16.7772 -16.7725 -16.7469 -16.7305 -16.6994
   -16.6974 -16.6909 -16.6118 -16.6095 -16.5772 -16.5759 -16.5288 -16.4858
   -16.4819 -16.4241 -16.4037 -16.3934 -16.3835 -16.3654 -16.3235 -16.3223
   -13.2322 -13.1086 -12.9869 -12.8427 -12.7454 -12.6561 -12.6203 -12.5016
   -12.4223 -12.3780 -12.3755 -12.3586 -12.2023 -12.0226 -11.8982 -11.6090
   -11.3651 -11.3053 -11.2804 -11.2361 -11.1291 -11.0766 -11.0496 -11.0086
   -11.0052 -11.0010 -10.9434 -10.9398 -10.9365 -10.8179 -10.7711 -10.7622
   -10.7343 -10.7233 -10.7191 -10.7159 -10.6894 -10.6279 -10.6250 -10.6086
   -10.6029 -10.5741 -10.5533 -10.5529 -10.5032 -10.4887 -10.4253 -10.4165
   -10.3945 -10.3526 -10.3201 -10.2879 -10.2678 -10.2393 -10.2248 -10.2054
   -10.1908 -10.1668 -10.1201 -10.0868 -10.0756 -10.0440 -10.0311  -9.9165
    -9.8431  -9.8090  -9.7749  -9.7713  -9.7209  -9.7073  -9.6791  -9.6308
    -9.6225  -9.6098  -9.5979  -9.5936  -9.5552  -9.4670  -9.4204  -9.4137
    -9.4062  -9.3576  -9.3543  -9.3386  -9.2951  -9.2888  -9.2762  -9.2693
    -9.2255  -9.2026  -9.1912  -9.1832  -9.1748  -9.1711  -9.1319  -9.1073
    -9.1065  -9.0995  -9.0849  -9.0767  -9.0628  -9.0557  -9.0395  -9.0214
    -8.9958  -8.9641  -8.9585  -8.9484  -8.9429  -8.9274  -8.9239  -8.9000
    -8.8784  -8.8682  -8.8438  -8.8327  -8.8312  -8.8145  -8.8040  -8.7886
    -8.7825  -8.7656  -8.7402  -8.7262  -8.7249  -8.7218  -8.7098  -8.7066
    -8.7022  -8.6750  -8.6387  -8.6232  -8.6185  -8.6036  -8.5620  -8.5567
    -8.5479  -8.5406  -8.5221  -8.5153  -8.5046  -8.4693  -8.4573  -8.4509
    -8.4481  -8.4363  -8.4299  -8.3939  -8.3378  -8.3355  -8.3261  -8.3139
    -8.3060  -8.2741  -8.2719  -8.2546  -8.2250  -8.2231  -8.2139  -8.2086
    -8.1845  -8.1625  -8.1588  -8.1463  -8.1424  -8.1363  -8.1305  -8.1132
    -8.1019  -8.0989  -8.0725  -8.0693  -8.0476  -8.0361  -7.9995  -7.9857
    -7.9683  -7.9585  -7.9344  -7.9247  -7.8879  -7.8676  -7.8643  -7.8599
    -7.8457  -7.8439  -7.8365  -7.8166  -7.8051  -7.7874  -7.7779  -7.7698
    -7.7611  -7.7370  -7.7273  -7.7187  -7.7045  -7.6861  -7.6756  -7.6561
    -7.6535  -7.6462  -7.6359  -7.6297  -7.6266  -7.5811  -7.5755  -7.5351
    -7.5280  -7.4984  -7.4726  -7.4525  -7.4378  -7.4324  -7.4272  -7.4202
    -7.3783  -7.3553  -7.3479  -7.3397  -7.3253  -7.3164  -7.3071  -7.2957
    -7.2905  -7.2887  -7.2741  -7.2520  -7.2464  -7.2229  -7.2184  -7.2069
    -7.1897  -7.1594  -7.1300  -7.1191  -7.1144  -7.1085  -7.1022  -7.0959
    -7.0893  -7.0620  -7.0475  -7.0403  -7.0041  -6.9974  -6.9900  -6.9840
    -6.9621  -6.9392  -6.9310  -6.9262  -6.9218  -6.9117  -6.9001  -6.8945
    -6.8908  -6.8794  -6.8763  -6.8669  -6.8619  -6.8551  -6.8517  -6.8425
    -6.8345  -6.8305  -6.8244  -6.8220  -6.8093  -6.7970  -6.7822  -6.7503
    -6.7413  -6.7337  -6.7066  -6.6939  -6.6742  -6.6607  -6.6540  -6.6512
    -6.6407  -6.6067  -6.5990  -6.5834  -6.5588  -6.5554  -6.5441  -6.5300
    -6.5204  -6.5166  -6.5149  -6.4891  -6.4790  -6.4732  -6.4709  -6.4548
    -6.4512  -6.4423  -6.4359  -6.4127  -6.4022  -6.3967  -6.3837  -6.3448
    -6.3332  -6.3258  -6.3224  -6.3190  -6.3143  -6.3014  -6.2956  -6.2905
    -6.2682  -6.2648  -6.2500  -6.2388  -6.2341  -6.2148  -6.2013  -6.1805
    -6.1673  -6.1481  -6.1425  -6.1375  -6.1227  -6.1174  -6.1117  -6.0936
    -6.0815  -6.0769  -6.0635  -6.0569  -6.0472  -6.0416  -6.0289  -6.0156
    -6.0062  -5.9919  -5.9877  -5.9819  -5.9725  -5.9668  -5.9523  -5.9451
    -5.9395  -5.9336  -5.9210  -5.9144  -5.8998  -5.8935  -5.8760  -5.8628
    -5.8435  -5.8239  -5.8106  -5.8030  -5.7952  -5.7593  -5.7514  -5.7423
    -5.7291  -5.7102  -5.6982  -5.6868  -5.6737  -5.6630  -5.6539  -5.6382
    -5.6272  -5.6176  -5.6061  -5.5981  -5.5928  -5.5776  -5.5546  -5.5393
    -5.5271  -5.5024  -5.4983  -5.4864  -5.4796  -5.4640  -5.4525  -5.4234
    -5.4181  -5.3909  -5.3775  -5.3689  -5.3587  -5.3384  -5.3257  -5.3164
    -5.3069  -5.3014  -5.2785  -5.2745  -5.2647  -5.2506  -5.2351  -5.2302
    -5.2196  -5.2117  -5.1851  -5.1701  -5.1552  -5.1441  -5.1281  -5.1046
    -5.0992  -5.0943  -5.0784  -5.0507  -5.0401  -5.0270  -4.9985  -4.9961
    -4.9648  -4.9036  -4.8758  -4.8532  -4.8395  -4.8076  -4.7985  -4.7919
    -4.7873  -4.7822  -4.7686  -4.7014  -4.6965  -4.6935  -4.6666  -4.6520
    -4.6406  -4.6162  -4.6105  -4.6024  -4.5924  -4.5490  -4.5064  -4.4975
    -4.4415  -4.4383  -4.3070  -4.2905  -4.1890  -4.1827  -4.0323  -4.0049
    -3.8685  -3.7881  -3.7876  -3.6824  -3.6747  -3.6743  -3.6470  -3.6178
    -3.6175  -2.6401  -2.6340  -2.3024  -2.2764  -2.2633  -2.2474  -2.2444
    -2.2057  -2.1974  -2.1686  -2.1440  -2.1324  -2.0964  -2.0810  -1.9980
    -1.9958  -1.9729  -1.9595  -1.9526  -1.9432  -1.9270  -1.9221  -1.9057
    -1.8875  -1.8836  -1.8664  -1.8524  -1.8479  -1.8421  -1.7864  -1.7739
    -1.7664  -1.6626  -1.6147  -1.6101  -1.5838  -1.5726  -1.5115  -1.5082
    -1.3435  -1.3343  -1.2905  -1.2252  -1.1299  -1.1176  -1.0558  -1.0541
    -0.9708  -0.9328  -0.8879  -0.8857  -0.8472  -0.8408  -0.7305  -0.5681
    -0.5604  -0.5404  -0.5400  -0.5249  -0.4503  -0.4352  -0.4310  -0.4090
    -0.3788  -0.3777  -0.3762  -0.3577  -0.3410  -0.3184  -0.2987  -0.2831
    -0.2129  -0.2120  -0.0228   0.0157   0.0448   0.0526   0.0912   0.1824
     0.2856   0.3004   0.3823   0.4792   0.6267   0.6312   0.6568   0.6931
     0.6980   0.7050   0.7259   0.7322   0.7425   0.7575   0.7992   0.8099
     0.8749   0.9029   0.9328   0.9687   1.0205   1.0330   1.1170   1.2216
     1.2286   1.2462   1.2565   1.2575   1.2719   1.3048   1.3223   1.3353
     1.4111   1.4138   1.5552   1.6617   1.6833   1.6921   1.6968   1.7005
     1.7369   1.7897   1.8250   1.8271   1.8518   1.8799   1.8960   1.9623
     2.0175   2.0539   2.0977   2.1361   2.1390   2.1411   2.1471   2.1627

     occupation numbers 
     1.0000   1.0000   1.0000   1.0000   1.0000   1.0000   1.0000   1.0000
     1.0000   1.0000   1.0000   1.0000   1.0000   1.0000   1.0000   1.0000
     1.0000   1.0000   1.0000   1.0000   1.0000   1.0000   1.0000   1.0000
     1.0000   1.0000   1.0000   1.0000   1.0000   1.0000   1.0000   1.0000
     1.0000   1.0000   1.0000   1.0000   1.0000   1.0000   1.0000   1.0000
     1.0000   1.0000   1.0000   1.0000   1.0000   1.0000   1.0000   1.0000
     1.0000   1.0000   1.0000   1.0000   1.0000   1.0000   1.0000   1.0000
     1.0000   1.0000   1.0000   1.0000   1.0000   1.0000   1.0000   1.0000
     1.0000   1.0000   1.0000   1.0000   1.0000   1.0000   1.0000   1.0000
     1.0000   1.0000   1.0000   1.0000   1.0000   1.0000   1.0000   1.0000
     1.0000   1.0000   1.0000   1.0000   1.0000   1.0000   1.0000   1.0000
     1.0000   1.0000   1.0000   1.0000   1.0000   1.0000   1.0000   1.0000
     1.0000   1.0000   1.0000   1.0000   1.0000   1.0000   1.0000   1.0000
     1.0000   1.0000   1.0000   1.0000   1.0000   1.0000   1.0000   1.0000
     1.0000   1.0000   1.0000   1.0000   1.0000   1.0000   1.0000   1.0000
     1.0000   1.0000   1.0000   1.0000   1.0000   1.0000   1.0000   1.0000
     1.0000   1.0000   1.0000   1.0000   1.0000   1.0000   1.0000   1.0000
     1.0000   1.0000   1.0000   1.0000   1.0000   1.0000   1.0000   1.0000
     1.0000   1.0000   1.0000   1.0000   1.0000   1.0000   1.0000   1.0000
     1.0000   1.0000   1.0000   1.0000   1.0000   1.0000   1.0000   1.0000
     1.0000   1.0000   1.0000   1.0000   1.0000   1.0000   1.0000   1.0000
     1.0000   1.0000   1.0000   1.0000   1.0000   1.0000   1.0000   1.0000
     1.0000   1.0000   1.0000   1.0000   1.0000   1.0000   1.0000   1.0000
     1.0000   1.0000   1.0000   1.0000   1.0000   1.0000   1.0000   1.0000
     1.0000   1.0000   1.0000   1.0000   1.0000   1.0000   1.0000   1.0000
     1.0000   1.0000   1.0000   1.0000   1.0000   1.0000   1.0000   1.0000
     1.0000   1.0000   1.0000   1.0000   1.0000   1.0000   1.0000   1.0000
     1.0000   1.0000   1.0000   1.0000   1.0000   1.0000   1.0000   1.0000
     1.0000   1.0000   1.0000   1.0000   1.0000   1.0000   1.0000   1.0000
     1.0000   1.0000   1.0000   1.0000   1.0000   1.0000   1.0000   1.0000
     1.0000   1.0000   1.0000   1.0000   1.0000   1.0000   1.0000   1.0000
     1.0000   1.0000   1.0000   1.0000   1.0000   1.0000   1.0000   1.0000
     1.0000   1.0000   1.0000   1.0000   1.0000   1.0000   1.0000   1.0000
     1.0000   1.0000   1.0000   1.0000   1.0000   1.0000   1.0000   1.0000
     1.0000   1.0000   1.0000   1.0000   1.0000   1.0000   1.0000   1.0000
     1.0000   1.0000   1.0000   1.0000   1.0000   1.0000   1.0000   1.0000
     1.0000   1.0000   1.0000   1.0000   1.0000   1.0000   1.0000   1.0000
     1.0000   1.0000   1.0000   1.0000   1.0000   1.0000   1.0000   1.0000
     1.0000   1.0000   1.0000   1.0000   1.0000   1.0000   1.0000   1.0000
     1.0000   1.0000   1.0000   1.0000   1.0000   1.0000   1.0000   1.0000
     1.0000   1.0000   1.0000   1.0000   1.0000   1.0000   1.0000   1.0000
     1.0000   1.0000   1.0000   1.0000   1.0000   1.0000   1.0000   1.0000
     1.0000   1.0000   1.0000   1.0000   1.0000   1.0000   1.0000   1.0000
     1.0000   1.0000   1.0000   1.0000   1.0000   1.0000   1.0000   1.0000
     1.0000   1.0000   1.0000   1.0000   1.0000   1.0000   1.0000   1.0000
     1.0000   1.0000   1.0000   1.0000   1.0000   1.0000   1.0000   1.0000
     1.0000   1.0000   1.0000   1.0000   1.0000   1.0000   1.0000   1.0000
     1.0000   1.0000   1.0000   1.0000   1.0000   1.0000   1.0000   1.0000
     1.0000   1.0000   1.0000   1.0000   1.0000   1.0000   1.0000   1.0000
     1.0000   1.0000   1.0000   1.0000   1.0000   1.0000   1.0000   1.0000
     1.0000   1.0000   1.0000   1.0000   1.0000   1.0000   1.0000   1.0000
     1.0000   1.0000   1.0000   1.0000   1.0000   1.0000   1.0000   1.0000
     1.0000   1.0000   1.0000   1.0000   1.0000   1.0000   1.0000   1.0000
     1.0000   1.0000   1.0000   1.0000   1.0000   1.0000   1.0000   1.0000
     1.0000   1.0000   1.0000   1.0000   1.0000   1.0000   1.0000   1.0000
     1.0000   1.0000   1.0000   1.0000   1.0000   1.0000   1.0000   1.0000
     1.0000   1.0000   1.0000   1.0000   1.0000   1.0000   1.0000   1.0000
     1.0000   1.0000   1.0000   1.0000   1.0000   1.0000   1.0000   1.0000
     1.0000   1.0000   1.0000   1.0000   1.0000   1.0000   1.0000   1.0000
     1.0000   1.0000   1.0000   1.0000   1.0000   1.0000   1.0000   1.0000
     1.0000   1.0000   1.0000   1.0000   1.0000   1.0000   1.0000   1.0000
     1.0000   1.0000   1.0000   1.0000   1.0000   1.0000   1.0000   1.0000
     1.0000   1.0000   1.0000   1.0000   1.0000   1.0000   1.0000   1.0000
     1.0000   1.0000   1.0000   1.0000   1.0000   1.0000   1.0000   1.0000
     1.0000   1.0000   1.0000   1.0000   1.0000   1.0000   1.0000   1.0000
     1.0000   1.0000   1.0000   1.0000   1.0000   1.0000   1.0000   1.0000
     1.0000   1.0000   1.0000   1.0000   1.0000   1.0000   1.0000   1.0000
     1.0000   1.0000   1.0000   1.0000   1.0000   1.0000   1.0000   1.0000
     1.0000   1.0000   1.0000   1.0000   1.0000   1.0000   1.0000   1.0000
     1.0000   1.0000   1.0000   1.0000   1.0000   1.0000   1.0000   1.0000
     1.0000   1.0000   1.0000   1.0000   1.0000   1.0000   1.0000   1.0000
     1.0000   1.0000   1.0000   1.0000   1.0000   1.0000   1.0000   1.0000
     1.0000   1.0000   1.0000   1.0000   1.0000   1.0000   1.0000   1.0000
     1.0000   1.0000   1.0000   1.0000   1.0000   1.0000   1.0000   1.0001
     1.0001   1.0001   1.0002   1.0002   1.0003   1.0004   1.0005   1.0006
     1.0007   1.0008   1.0012   1.0012   1.0015   1.0018   1.0023   1.0025
     1.0030   1.0033   1.0049   1.0060   1.0074   1.0085   1.0104   1.0137
     1.0146   1.0155   1.0184   1.0245   1.0271   1.0306   1.0391   1.0399
     1.0503   1.0707   1.0781   1.0820   1.0832   1.0811   1.0791   1.0772
     1.0757   1.0737   1.0672   1.0044   0.9976   0.9934   0.9503   0.9231
     0.9003   0.8468   0.8335   0.8142   0.7893   0.6751   0.5573   0.5330
     0.3856   0.3778   0.1311   0.1113   0.0352   0.0324   0.0035   0.0022
     0.0002   0.0000   0.0000   0.0000   0.0000   0.0000   0.0000   0.0000
     0.0000   0.0000   0.0000   0.0000   0.0000   0.0000   0.0000   0.0000
     0.0000   0.0000   0.0000   0.0000   0.0000   0.0000   0.0000   0.0000
     0.0000   0.0000   0.0000   0.0000   0.0000   0.0000   0.0000   0.0000
     0.0000   0.0000   0.0000   0.0000   0.0000   0.0000   0.0000   0.0000
     0.0000   0.0000   0.0000   0.0000   0.0000   0.0000   0.0000   0.0000
     0.0000   0.0000   0.0000   0.0000   0.0000   0.0000   0.0000   0.0000
     0.0000   0.0000   0.0000   0.0000   0.0000   0.0000   0.0000   0.0000
     0.0000   0.0000   0.0000   0.0000   0.0000   0.0000   0.0000   0.0000
     0.0000   0.0000   0.0000   0.0000   0.0000   0.0000   0.0000   0.0000
     0.0000   0.0000   0.0000   0.0000   0.0000   0.0000   0.0000   0.0000
     0.0000   0.0000   0.0000   0.0000   0.0000   0.0000   0.0000   0.0000
     0.0000   0.0000   0.0000   0.0000   0.0000   0.0000   0.0000   0.0000
     0.0000   0.0000   0.0000   0.0000   0.0000   0.0000   0.0000   0.0000
     0.0000   0.0000   0.0000   0.0000   0.0000   0.0000   0.0000   0.0000
     0.0000   0.0000   0.0000   0.0000   0.0000   0.0000   0.0000   0.0000
     0.0000   0.0000   0.0000   0.0000   0.0000   0.0000   0.0000   0.0000
     0.0000   0.0000   0.0000   0.0000   0.0000   0.0000   0.0000   0.0000

          k = 0.3333 0.5774 0.0000 (319908 PWs)   bands (ev):

   -59.6999 -59.6956 -59.6943 -59.6584 -59.6572 -59.6567 -59.6369 -59.6358
   -59.6339 -59.6317 -59.6304 -59.6299 -59.6257 -59.6253 -59.6244 -59.6132
   -35.8376 -35.8363 -35.8331 -35.8178 -35.8033 -35.8020 -35.7991 -35.7963
   -35.7919 -35.7831 -35.7663 -35.7581 -35.7522 -35.7476 -35.7358 -35.7333
   -35.7243 -35.7149 -35.7108 -35.7100 -35.7090 -35.6983 -35.6979 -35.6888
   -35.6869 -35.6835 -35.6805 -35.6799 -35.6784 -35.6773 -35.6750 -35.6697
   -35.6691 -35.6656 -35.6625 -35.6610 -35.6588 -35.6584 -35.6531 -35.6497
   -35.6483 -35.6476 -35.6441 -35.6422 -35.6409 -35.6402 -35.6383 -35.6347
   -23.6825 -23.6742 -23.6234 -23.2158 -23.2103 -23.2023 -22.9396 -22.9379
   -22.9033 -22.6632 -22.6460 -22.6394 -22.6392 -22.6103 -22.5823 -22.3193
   -22.3129 -22.2894 -22.1925 -22.1841 -22.1650 -22.0509 -22.0398 -22.0360
   -22.0135 -22.0131 -22.0009 -21.9693 -21.9602 -21.9453 -21.8754 -21.8727
   -21.8682 -21.8518 -21.8470 -21.8429 -21.7281 -21.7195 -21.7182 -21.7161
   -21.7033 -21.7024 -21.6994 -21.6861 -21.6812 -21.6394 -21.6369 -21.6061
   -21.5424 -21.5314 -21.5293 -21.5171 -21.5106 -21.4991 -21.4860 -21.4810
   -21.4648 -21.4237 -21.3994 -21.3956 -21.3873 -21.3779 -21.3758 -21.3472
   -21.3404 -21.3354 -21.3128 -21.3034 -21.2959 -21.1333 -21.1332 -21.1328
   -21.1224 -21.1211 -21.1144 -21.0732 -21.0670 -21.0668 -21.0504 -21.0486
   -21.0483 -20.9751 -20.9716 -20.9704 -20.9521 -20.9489 -20.9471 -20.6016
   -20.6016 -20.6016 -20.5985 -20.5978 -20.5975 -19.6921 -19.6920 -19.6919
   -19.6629 -19.6629 -19.6622 -19.2982 -19.2969 -19.2948 -19.1318 -19.1312
   -19.1308 -19.0493 -19.0492 -19.0476 -18.6889 -18.6885 -18.6854 -18.4893
   -17.7178 -17.6845 -17.6807 -17.2192 -17.2138 -17.2133 -16.9596 -16.9271
   -16.9256 -16.8732 -16.8721 -16.8578 -16.8195 -16.7910 -16.7855 -16.7057
   -16.6400 -16.6332 -16.5935 -16.5915 -16.5895 -16.5702 -16.4897 -16.4793
   -16.4783 -16.4445 -16.4391 -16.4336 -16.3719 -16.3397 -16.3370 -16.3030
   -13.0563 -13.0561 -13.0560 -12.7211 -12.7209 -12.7198 -12.7038 -12.7029
   -12.7025 -12.1597 -12.1124 -12.1081 -12.1072 -12.0186 -12.0185 -12.0183
   -11.7193 -11.4566 -11.4564 -11.4562 -11.0393 -11.0389 -11.0351 -11.0132
   -11.0065 -10.9782 -10.7770 -10.7710 -10.7648 -10.7601 -10.7568 -10.7472
   -10.7368 -10.7350 -10.7326 -10.7186 -10.6963 -10.6942 -10.6030 -10.6009
   -10.6006 -10.4856 -10.4847 -10.4541 -10.3904 -10.3842 -10.3648 -10.2913
   -10.2863 -10.2820 -10.2659 -10.2657 -10.2505 -10.2406 -10.2322 -10.2179
   -10.1794 -10.1793 -10.1793  -9.9369  -9.9367  -9.9367  -9.9339  -9.9320
    -9.9277  -9.7799  -9.7730  -9.7685  -9.7371  -9.7368  -9.7345  -9.6087
    -9.6071  -9.5924  -9.5541  -9.5526  -9.5495  -9.5332  -9.5285  -9.5135
    -9.5100  -9.5091  -9.5083  -9.4879  -9.4866  -9.4853  -9.2938  -9.2929
    -9.2854  -9.2580  -9.2505  -9.2450  -9.1447  -9.1357  -9.1235  -9.1228
    -9.1223  -9.1145  -9.1094  -9.1043  -9.0952  -9.0526  -9.0475  -9.0435
    -8.9927  -8.9882  -8.9876  -8.9474  -8.9347  -8.9281  -8.9161  -8.9053
    -8.9040  -8.8343  -8.8270  -8.8131  -8.8065  -8.8060  -8.8043  -8.7517
    -8.7176  -8.7083  -8.6672  -8.6670  -8.6636  -8.6457  -8.6456  -8.6455
    -8.6425  -8.6393  -8.6391  -8.6365  -8.6314  -8.6280  -8.6168  -8.5522
    -8.5512  -8.5441  -8.5400  -8.5272  -8.5219  -8.5083  -8.5070  -8.5066
    -8.5014  -8.4746  -8.4595  -8.4298  -8.3853  -8.3778  -8.3716  -8.3654
    -8.3394  -8.2808  -8.2079  -8.1934  -8.1686  -8.1565  -8.1500  -8.1486
    -8.1397  -8.1379  -8.1357  -8.1308  -8.1269  -8.1266  -8.1183  -8.1108
    -8.1079  -8.1011  -8.0743  -8.0628  -8.0483  -8.0452  -8.0397  -7.9770
    -7.9750  -7.9652  -7.9396  -7.9371  -7.9354  -7.9059  -7.8941  -7.8854
    -7.8657  -7.8602  -7.8393  -7.8304  -7.8115  -7.7835  -7.7650  -7.7523
    -7.7462  -7.7458  -7.7457  -7.7287  -7.7254  -7.7019  -7.6875  -7.6798
    -7.6429  -7.6014  -7.5852  -7.5744  -7.5720  -7.5601  -7.5538  -7.5532
    -7.5356  -7.5114  -7.5036  -7.5031  -7.4912  -7.3918  -7.3851  -7.3847
    -7.3840  -7.3797  -7.3742  -7.3661  -7.3612  -7.3534  -7.3455  -7.3401
    -7.3344  -7.3261  -7.3243  -7.3174  -7.2808  -7.2745  -7.2701  -7.1757
    -7.1756  -7.1680  -7.1400  -7.1256  -7.0896  -7.0891  -7.0821  -7.0657
    -7.0650  -7.0559  -7.0538  -7.0223  -7.0164  -7.0142  -6.9769  -6.9704
    -6.9450  -6.9385  -6.9324  -6.9256  -6.9096  -6.8909  -6.8823  -6.8655
    -6.8537  -6.8519  -6.8500  -6.8482  -6.8446  -6.8428  -6.8347  -6.8324
    -6.8148  -6.8108  -6.8062  -6.7683  -6.7632  -6.7618  -6.7610  -6.7246
    -6.7193  -6.7113  -6.7057  -6.7001  -6.6825  -6.6224  -6.6031  -6.5968
    -6.5968  -6.5901  -6.5780  -6.5586  -6.5421  -6.5399  -6.5195  -6.5189
    -6.5051  -6.4902  -6.4754  -6.4745  -6.4370  -6.4354  -6.4348  -6.4277
    -6.4246  -6.4170  -6.4164  -6.4162  -6.4103  -6.3943  -6.3818  -6.3749
    -6.3694  -6.3676  -6.3670  -6.3383  -6.3235  -6.3105  -6.3098  -6.2714
    -6.2671  -6.2493  -6.2415  -6.2287  -6.2177  -6.2038  -6.2037  -6.1347
    -6.1343  -6.1176  -6.1172  -6.1072  -6.1035  -6.1002  -6.0952  -6.0857
    -6.0777  -6.0729  -6.0623  -6.0604  -6.0433  -6.0319  -6.0257  -6.0216
    -6.0142  -5.9996  -5.9879  -5.9696  -5.9675  -5.9409  -5.9257  -5.9190
    -5.9087  -5.9046  -5.8959  -5.8832  -5.8822  -5.8697  -5.8679  -5.8662
    -5.8521  -5.8430  -5.8396  -5.8197  -5.8183  -5.8023  -5.7818  -5.7785
    -5.7631  -5.7627  -5.7362  -5.7355  -5.7329  -5.7218  -5.7119  -5.7110
    -5.6856  -5.6500  -5.6348  -5.6337  -5.6241  -5.6170  -5.6117  -5.5849
    -5.5772  -5.5651  -5.5642  -5.5307  -5.5136  -5.4808  -5.4696  -5.4602
    -5.4560  -5.4472  -5.4258  -5.4193  -5.3793  -5.3371  -5.3236  -5.3059
    -5.2953  -5.2948  -5.2918  -5.2804  -5.2631  -5.2615  -5.2348  -5.2258
    -5.2139  -5.1955  -5.1780  -5.1757  -5.1442  -5.1344  -5.1296  -5.0587
    -5.0581  -5.0579  -5.0311  -5.0215  -5.0124  -4.9871  -4.9667  -4.9577
    -4.8991  -4.8920  -4.8897  -4.8312  -4.8297  -4.8189  -4.8150  -4.8068
    -4.7886  -4.7579  -4.7579  -4.7502  -4.6718  -4.6553  -4.6484  -4.6336
    -4.6319  -4.6155  -4.6027  -4.6003  -4.5972  -4.5953  -4.5580  -4.5569
    -4.5549  -4.3277  -4.3181  -4.3024  -4.0105  -3.9740  -3.9466  -3.9441
    -3.8811  -3.8747  -3.8568  -3.6900  -3.6893  -3.6836  -3.6285  -3.6273
    -3.6210  -2.8749  -2.4484  -2.4220  -2.4044  -2.2748  -2.2601  -2.2453
    -2.2246  -2.2090  -2.2008  -2.1747  -2.1658  -2.1531  -2.0486  -2.0370
    -2.0135  -1.9788  -1.9638  -1.9466  -1.9455  -1.9165  -1.9068  -1.8946
    -1.8884  -1.8796  -1.8743  -1.8693  -1.8363  -1.8290  -1.8181  -1.8166
    -1.7480  -1.7120  -1.7084  -1.6209  -1.5651  -1.5601  -1.3136  -1.3038
    -1.3030  -1.2845  -1.2779  -1.2177  -1.1289  -1.1165  -1.1090  -1.0915
    -1.0497  -0.9318  -0.8851  -0.8646  -0.8057  -0.8057  -0.8034  -0.5670
    -0.5519  -0.5140  -0.4923  -0.4688  -0.4413  -0.4216  -0.4134  -0.4048
    -0.3955  -0.3801  -0.3773  -0.3773  -0.3571  -0.3476  -0.3396  -0.3392
    -0.3389  -0.2522  -0.0838   0.0302   0.0303   0.0340   0.2413   0.2419
     0.2425   0.3935   0.4013   0.4147   0.7307   0.7366   0.7391   0.7933
     0.7944   0.7946   0.8610   0.8687   0.8829   0.8832   0.8834   0.9468
     0.9573   0.9722   1.0009   1.0221   1.0471   1.0832   1.0849   1.0853
     1.0908   1.0930   1.0937   1.1917   1.2635   1.2922   1.4441   1.4583
     1.4625   1.4877   1.4881   1.4884   1.5829   1.5835   1.5973   1.6704
     1.6881   1.6887   1.6904   1.6928   1.6936   1.7688   1.7697   1.7702
     1.8642   1.9158   1.9196   1.9630   2.0837   2.0856   2.0992   2.1069

     occupation numbers 
     1.0000   1.0000   1.0000   1.0000   1.0000   1.0000   1.0000   1.0000
     1.0000   1.0000   1.0000   1.0000   1.0000   1.0000   1.0000   1.0000
     1.0000   1.0000   1.0000   1.0000   1.0000   1.0000   1.0000   1.0000
     1.0000   1.0000   1.0000   1.0000   1.0000   1.0000   1.0000   1.0000
     1.0000   1.0000   1.0000   1.0000   1.0000   1.0000   1.0000   1.0000
     1.0000   1.0000   1.0000   1.0000   1.0000   1.0000   1.0000   1.0000
     1.0000   1.0000   1.0000   1.0000   1.0000   1.0000   1.0000   1.0000
     1.0000   1.0000   1.0000   1.0000   1.0000   1.0000   1.0000   1.0000
     1.0000   1.0000   1.0000   1.0000   1.0000   1.0000   1.0000   1.0000
     1.0000   1.0000   1.0000   1.0000   1.0000   1.0000   1.0000   1.0000
     1.0000   1.0000   1.0000   1.0000   1.0000   1.0000   1.0000   1.0000
     1.0000   1.0000   1.0000   1.0000   1.0000   1.0000   1.0000   1.0000
     1.0000   1.0000   1.0000   1.0000   1.0000   1.0000   1.0000   1.0000
     1.0000   1.0000   1.0000   1.0000   1.0000   1.0000   1.0000   1.0000
     1.0000   1.0000   1.0000   1.0000   1.0000   1.0000   1.0000   1.0000
     1.0000   1.0000   1.0000   1.0000   1.0000   1.0000   1.0000   1.0000
     1.0000   1.0000   1.0000   1.0000   1.0000   1.0000   1.0000   1.0000
     1.0000   1.0000   1.0000   1.0000   1.0000   1.0000   1.0000   1.0000
     1.0000   1.0000   1.0000   1.0000   1.0000   1.0000   1.0000   1.0000
     1.0000   1.0000   1.0000   1.0000   1.0000   1.0000   1.0000   1.0000
     1.0000   1.0000   1.0000   1.0000   1.0000   1.0000   1.0000   1.0000
     1.0000   1.0000   1.0000   1.0000   1.0000   1.0000   1.0000   1.0000
     1.0000   1.0000   1.0000   1.0000   1.0000   1.0000   1.0000   1.0000
     1.0000   1.0000   1.0000   1.0000   1.0000   1.0000   1.0000   1.0000
     1.0000   1.0000   1.0000   1.0000   1.0000   1.0000   1.0000   1.0000
     1.0000   1.0000   1.0000   1.0000   1.0000   1.0000   1.0000   1.0000
     1.0000   1.0000   1.0000   1.0000   1.0000   1.0000   1.0000   1.0000
     1.0000   1.0000   1.0000   1.0000   1.0000   1.0000   1.0000   1.0000
     1.0000   1.0000   1.0000   1.0000   1.0000   1.0000   1.0000   1.0000
     1.0000   1.0000   1.0000   1.0000   1.0000   1.0000   1.0000   1.0000
     1.0000   1.0000   1.0000   1.0000   1.0000   1.0000   1.0000   1.0000
     1.0000   1.0000   1.0000   1.0000   1.0000   1.0000   1.0000   1.0000
     1.0000   1.0000   1.0000   1.0000   1.0000   1.0000   1.0000   1.0000
     1.0000   1.0000   1.0000   1.0000   1.0000   1.0000   1.0000   1.0000
     1.0000   1.0000   1.0000   1.0000   1.0000   1.0000   1.0000   1.0000
     1.0000   1.0000   1.0000   1.0000   1.0000   1.0000   1.0000   1.0000
     1.0000   1.0000   1.0000   1.0000   1.0000   1.0000   1.0000   1.0000
     1.0000   1.0000   1.0000   1.0000   1.0000   1.0000   1.0000   1.0000
     1.0000   1.0000   1.0000   1.0000   1.0000   1.0000   1.0000   1.0000
     1.0000   1.0000   1.0000   1.0000   1.0000   1.0000   1.0000   1.0000
     1.0000   1.0000   1.0000   1.0000   1.0000   1.0000   1.0000   1.0000
     1.0000   1.0000   1.0000   1.0000   1.0000   1.0000   1.0000   1.0000
     1.0000   1.0000   1.0000   1.0000   1.0000   1.0000   1.0000   1.0000
     1.0000   1.0000   1.0000   1.0000   1.0000   1.0000   1.0000   1.0000
     1.0000   1.0000   1.0000   1.0000   1.0000   1.0000   1.0000   1.0000
     1.0000   1.0000   1.0000   1.0000   1.0000   1.0000   1.0000   1.0000
     1.0000   1.0000   1.0000   1.0000   1.0000   1.0000   1.0000   1.0000
     1.0000   1.0000   1.0000   1.0000   1.0000   1.0000   1.0000   1.0000
     1.0000   1.0000   1.0000   1.0000   1.0000   1.0000   1.0000   1.0000
     1.0000   1.0000   1.0000   1.0000   1.0000   1.0000   1.0000   1.0000
     1.0000   1.0000   1.0000   1.0000   1.0000   1.0000   1.0000   1.0000
     1.0000   1.0000   1.0000   1.0000   1.0000   1.0000   1.0000   1.0000
     1.0000   1.0000   1.0000   1.0000   1.0000   1.0000   1.0000   1.0000
     1.0000   1.0000   1.0000   1.0000   1.0000   1.0000   1.0000   1.0000
     1.0000   1.0000   1.0000   1.0000   1.0000   1.0000   1.0000   1.0000
     1.0000   1.0000   1.0000   1.0000   1.0000   1.0000   1.0000   1.0000
     1.0000   1.0000   1.0000   1.0000   1.0000   1.0000   1.0000   1.0000
     1.0000   1.0000   1.0000   1.0000   1.0000   1.0000   1.0000   1.0000
     1.0000   1.0000   1.0000   1.0000   1.0000   1.0000   1.0000   1.0000
     1.0000   1.0000   1.0000   1.0000   1.0000   1.0000   1.0000   1.0000
     1.0000   1.0000   1.0000   1.0000   1.0000   1.0000   1.0000   1.0000
     1.0000   1.0000   1.0000   1.0000   1.0000   1.0000   1.0000   1.0000
     1.0000   1.0000   1.0000   1.0000   1.0000   1.0000   1.0000   1.0000
     1.0000   1.0000   1.0000   1.0000   1.0000   1.0000   1.0000   1.0000
     1.0000   1.0000   1.0000   1.0000   1.0000   1.0000   1.0000   1.0000
     1.0000   1.0000   1.0000   1.0000   1.0000   1.0000   1.0000   1.0000
     1.0000   1.0000   1.0000   1.0000   1.0000   1.0000   1.0000   1.0000
     1.0000   1.0000   1.0000   1.0000   1.0000   1.0000   1.0000   1.0000
     1.0000   1.0000   1.0000   1.0000   1.0000   1.0000   1.0000   1.0000
     1.0000   1.0000   1.0000   1.0000   1.0000   1.0000   1.0000   1.0000
     1.0000   1.0000   1.0000   1.0000   1.0000   1.0000   1.0000   1.0000
     1.0000   1.0000   1.0000   1.0000   1.0000   1.0000   1.0000   1.0000
     1.0000   1.0000   1.0000   1.0000   1.0000   1.0000   1.0000   1.0000
     1.0000   1.0000   1.0000   1.0000   1.0000   1.0000   1.0000   1.0000
     1.0000   1.0000   1.0001   1.0001   1.0002   1.0004   1.0005   1.0007
     1.0009   1.0009   1.0009   1.0011   1.0015   1.0015   1.0024   1.0027
     1.0032   1.0042   1.0054   1.0056   1.0085   1.0096   1.0102   1.0226
     1.0227   1.0228   1.0295   1.0322   1.0348   1.0428   1.0496   1.0527
     1.0721   1.0741   1.0747   1.0833   1.0833   1.0827   1.0823   1.0810
     1.0761   1.0607   1.0607   1.0552   0.9593   0.9294   0.9161   0.8856
     0.8819   0.8453   0.8149   0.8090   0.8014   0.7966   0.6995   0.6965
     0.6912   0.1593   0.1457   0.1253   0.0024   0.0013   0.0008   0.0007
     0.0002   0.0002   0.0001   0.0000   0.0000   0.0000   0.0000   0.0000
     0.0000   0.0000   0.0000   0.0000   0.0000   0.0000   0.0000   0.0000
     0.0000   0.0000   0.0000   0.0000   0.0000   0.0000   0.0000   0.0000
     0.0000   0.0000   0.0000   0.0000   0.0000   0.0000   0.0000   0.0000
     0.0000   0.0000   0.0000   0.0000   0.0000   0.0000   0.0000   0.0000
     0.0000   0.0000   0.0000   0.0000   0.0000   0.0000   0.0000   0.0000
     0.0000   0.0000   0.0000   0.0000   0.0000   0.0000   0.0000   0.0000
     0.0000   0.0000   0.0000   0.0000   0.0000   0.0000   0.0000   0.0000
     0.0000   0.0000   0.0000   0.0000   0.0000   0.0000   0.0000   0.0000
     0.0000   0.0000   0.0000   0.0000   0.0000   0.0000   0.0000   0.0000
     0.0000   0.0000   0.0000   0.0000   0.0000   0.0000   0.0000   0.0000
     0.0000   0.0000   0.0000   0.0000   0.0000   0.0000   0.0000   0.0000
     0.0000   0.0000   0.0000   0.0000   0.0000   0.0000   0.0000   0.0000
     0.0000   0.0000   0.0000   0.0000   0.0000   0.0000   0.0000   0.0000
     0.0000   0.0000   0.0000   0.0000   0.0000   0.0000   0.0000   0.0000
     0.0000   0.0000   0.0000   0.0000   0.0000   0.0000   0.0000   0.0000
     0.0000   0.0000   0.0000   0.0000   0.0000   0.0000   0.0000   0.0000
     0.0000   0.0000   0.0000   0.0000   0.0000   0.0000   0.0000   0.0000

          k = 0.3333-0.1925 0.0000 (319990 PWs)   bands (ev):

   -59.6999 -59.6956 -59.6943 -59.6584 -59.6573 -59.6567 -59.6372 -59.6351
   -59.6342 -59.6320 -59.6303 -59.6299 -59.6257 -59.6252 -59.6245 -59.6132
   -35.8402 -35.8392 -35.8362 -35.8163 -35.8066 -35.8008 -35.8002 -35.7862
   -35.7856 -35.7809 -35.7688 -35.7600 -35.7484 -35.7426 -35.7325 -35.7265
   -35.7255 -35.7244 -35.7168 -35.7103 -35.7092 -35.7054 -35.6999 -35.6923
   -35.6866 -35.6846 -35.6841 -35.6828 -35.6790 -35.6774 -35.6741 -35.6692
   -35.6683 -35.6630 -35.6605 -35.6595 -35.6586 -35.6556 -35.6533 -35.6493
   -35.6480 -35.6473 -35.6431 -35.6423 -35.6414 -35.6408 -35.6352 -35.6349
   -23.7719 -23.6088 -23.4523 -23.4448 -23.1702 -23.1644 -23.0431 -22.9253
   -22.9247 -22.7089 -22.5892 -22.5696 -22.4914 -22.4875 -22.4608 -22.4504
   -22.3948 -22.3936 -22.2095 -22.2044 -22.1918 -22.1877 -22.1011 -22.0334
   -22.0304 -21.9907 -21.9814 -21.9215 -21.9124 -21.9042 -21.8983 -21.8651
   -21.8322 -21.8320 -21.8256 -21.8045 -21.7739 -21.7635 -21.7445 -21.7158
   -21.7088 -21.6868 -21.6767 -21.6693 -21.6371 -21.6144 -21.5923 -21.5875
   -21.5786 -21.5255 -21.5146 -21.4963 -21.4846 -21.4784 -21.4693 -21.4568
   -21.4455 -21.4453 -21.4441 -21.4294 -21.4225 -21.4011 -21.3837 -21.3735
   -21.3682 -21.3512 -21.3381 -21.2613 -21.2226 -21.2209 -21.1796 -21.1767
   -21.1141 -21.1130 -21.0724 -21.0718 -21.0580 -21.0555 -21.0355 -21.0343
   -21.0220 -21.0036 -20.9972 -20.9946 -20.9551 -20.9280 -20.9180 -20.8916
   -20.7146 -20.7132 -20.3777 -20.2168 -20.2091 -20.0665 -20.0566 -19.7666
   -19.7552 -19.5359 -19.5053 -19.3130 -19.2965 -19.2424 -19.2386 -19.1487
   -19.0125 -18.9887 -18.9404 -18.8761 -18.8322 -18.7836 -18.5877 -18.5741
   -17.8240 -17.6338 -17.4658 -17.4559 -17.1797 -17.1721 -17.0594 -16.9615
   -16.9526 -16.8561 -16.8176 -16.7772 -16.7725 -16.7469 -16.7305 -16.6995
   -16.6972 -16.6910 -16.6120 -16.6093 -16.5772 -16.5759 -16.5289 -16.4857
   -16.4819 -16.4242 -16.4037 -16.3934 -16.3834 -16.3654 -16.3236 -16.3222
   -13.2322 -13.1086 -12.9869 -12.8427 -12.7454 -12.6561 -12.6203 -12.5016
   -12.4223 -12.3780 -12.3754 -12.3586 -12.2023 -12.0226 -11.8982 -11.6090
   -11.3651 -11.3053 -11.2804 -11.2361 -11.1291 -11.0766 -11.0496 -11.0086
   -11.0052 -11.0010 -10.9435 -10.9398 -10.9365 -10.8179 -10.7711 -10.7622
   -10.7343 -10.7233 -10.7191 -10.7159 -10.6894 -10.6279 -10.6250 -10.6086
   -10.6029 -10.5740 -10.5533 -10.5529 -10.5031 -10.4887 -10.4253 -10.4165
   -10.3945 -10.3526 -10.3201 -10.2879 -10.2678 -10.2392 -10.2248 -10.2054
   -10.1908 -10.1669 -10.1201 -10.0868 -10.0756 -10.0440 -10.0311  -9.9165
    -9.8431  -9.8090  -9.7749  -9.7713  -9.7209  -9.7073  -9.6791  -9.6308
    -9.6225  -9.6098  -9.5978  -9.5936  -9.5552  -9.4670  -9.4204  -9.4137
    -9.4062  -9.3576  -9.3543  -9.3386  -9.2950  -9.2888  -9.2761  -9.2694
    -9.2255  -9.2026  -9.1912  -9.1833  -9.1749  -9.1711  -9.1319  -9.1073
    -9.1065  -9.0994  -9.0849  -9.0767  -9.0628  -9.0557  -9.0395  -9.0214
    -8.9957  -8.9640  -8.9585  -8.9484  -8.9429  -8.9275  -8.9239  -8.8999
    -8.8784  -8.8682  -8.8438  -8.8327  -8.8311  -8.8145  -8.8040  -8.7886
    -8.7825  -8.7656  -8.7402  -8.7260  -8.7252  -8.7218  -8.7098  -8.7066
    -8.7022  -8.6750  -8.6388  -8.6232  -8.6185  -8.6035  -8.5620  -8.5568
    -8.5480  -8.5405  -8.5222  -8.5153  -8.5045  -8.4693  -8.4572  -8.4509
    -8.4481  -8.4363  -8.4299  -8.3939  -8.3379  -8.3355  -8.3260  -8.3140
    -8.3059  -8.2740  -8.2720  -8.2545  -8.2249  -8.2232  -8.2139  -8.2086
    -8.1845  -8.1624  -8.1588  -8.1463  -8.1424  -8.1364  -8.1304  -8.1133
    -8.1018  -8.0988  -8.0726  -8.0693  -8.0476  -8.0360  -7.9996  -7.9856
    -7.9682  -7.9586  -7.9345  -7.9245  -7.8879  -7.8675  -7.8643  -7.8598
    -7.8458  -7.8439  -7.8364  -7.8166  -7.8052  -7.7873  -7.7779  -7.7699
    -7.7611  -7.7370  -7.7274  -7.7187  -7.7043  -7.6862  -7.6756  -7.6561
    -7.6535  -7.6463  -7.6360  -7.6295  -7.6266  -7.5811  -7.5755  -7.5351
    -7.5280  -7.4984  -7.4726  -7.4525  -7.4378  -7.4324  -7.4272  -7.4202
    -7.3783  -7.3553  -7.3479  -7.3397  -7.3253  -7.3163  -7.3071  -7.2957
    -7.2905  -7.2886  -7.2742  -7.2521  -7.2464  -7.2228  -7.2182  -7.2071
    -7.1897  -7.1594  -7.1299  -7.1192  -7.1144  -7.1085  -7.1022  -7.0959
    -7.0894  -7.0620  -7.0474  -7.0402  -7.0041  -6.9974  -6.9899  -6.9841
    -6.9620  -6.9391  -6.9309  -6.9263  -6.9217  -6.9119  -6.9000  -6.8945
    -6.8908  -6.8794  -6.8761  -6.8669  -6.8621  -6.8553  -6.8516  -6.8426
    -6.8345  -6.8308  -6.8244  -6.8218  -6.8092  -6.7968  -6.7823  -6.7503
    -6.7412  -6.7337  -6.7066  -6.6939  -6.6742  -6.6607  -6.6540  -6.6512
    -6.6407  -6.6068  -6.5991  -6.5833  -6.5587  -6.5554  -6.5441  -6.5298
    -6.5206  -6.5166  -6.5149  -6.4891  -6.4790  -6.4733  -6.4709  -6.4548
    -6.4512  -6.4422  -6.4359  -6.4128  -6.4021  -6.3968  -6.3838  -6.3448
    -6.3330  -6.3257  -6.3225  -6.3190  -6.3143  -6.3013  -6.2957  -6.2903
    -6.2683  -6.2649  -6.2500  -6.2388  -6.2341  -6.2148  -6.2014  -6.1805
    -6.1673  -6.1480  -6.1425  -6.1375  -6.1226  -6.1173  -6.1118  -6.0936
    -6.0815  -6.0769  -6.0635  -6.0569  -6.0472  -6.0416  -6.0290  -6.0157
    -6.0062  -5.9919  -5.9876  -5.9819  -5.9725  -5.9667  -5.9523  -5.9451
    -5.9396  -5.9336  -5.9210  -5.9144  -5.8998  -5.8935  -5.8760  -5.8628
    -5.8435  -5.8239  -5.8105  -5.8030  -5.7951  -5.7592  -5.7516  -5.7422
    -5.7291  -5.7103  -5.6981  -5.6868  -5.6737  -5.6630  -5.6539  -5.6382
    -5.6272  -5.6176  -5.6060  -5.5981  -5.5928  -5.5775  -5.5547  -5.5393
    -5.5270  -5.5024  -5.4984  -5.4865  -5.4796  -5.4640  -5.4524  -5.4233
    -5.4180  -5.3909  -5.3775  -5.3691  -5.3588  -5.3385  -5.3256  -5.3164
    -5.3069  -5.3013  -5.2787  -5.2745  -5.2647  -5.2507  -5.2351  -5.2301
    -5.2197  -5.2117  -5.1850  -5.1701  -5.1553  -5.1442  -5.1280  -5.1045
    -5.0992  -5.0943  -5.0784  -5.0507  -5.0400  -5.0270  -4.9986  -4.9958
    -4.9646  -4.9036  -4.8758  -4.8532  -4.8394  -4.8076  -4.7985  -4.7919
    -4.7873  -4.7822  -4.7687  -4.7014  -4.6964  -4.6934  -4.6666  -4.6520
    -4.6406  -4.6163  -4.6104  -4.6026  -4.5923  -4.5490  -4.5063  -4.4975
    -4.4415  -4.4384  -4.3070  -4.2905  -4.1893  -4.1824  -4.0323  -4.0049
    -3.8685  -3.7881  -3.7876  -3.6824  -3.6747  -3.6743  -3.6470  -3.6178
    -3.6175  -2.6400  -2.6341  -2.3021  -2.2766  -2.2635  -2.2475  -2.2443
    -2.2054  -2.1977  -2.1685  -2.1443  -2.1321  -2.0965  -2.0808  -1.9977
    -1.9962  -1.9730  -1.9593  -1.9526  -1.9433  -1.9267  -1.9224  -1.9056
    -1.8879  -1.8837  -1.8665  -1.8524  -1.8478  -1.8420  -1.7863  -1.7739
    -1.7665  -1.6626  -1.6144  -1.6104  -1.5838  -1.5726  -1.5119  -1.5078
    -1.3435  -1.3342  -1.2905  -1.2252  -1.1299  -1.1176  -1.0555  -1.0543
    -0.9708  -0.9329  -0.8879  -0.8857  -0.8472  -0.8407  -0.7305  -0.5684
    -0.5602  -0.5404  -0.5400  -0.5249  -0.4505  -0.4351  -0.4310  -0.4090
    -0.3789  -0.3777  -0.3763  -0.3577  -0.3408  -0.3186  -0.2985  -0.2830
    -0.2129  -0.2120  -0.0228   0.0157   0.0448   0.0527   0.0912   0.1824
     0.2857   0.3004   0.3823   0.4791   0.6267   0.6312   0.6567   0.6931
     0.6980   0.7050   0.7259   0.7322   0.7425   0.7576   0.7992   0.8099
     0.8750   0.9028   0.9328   0.9687   1.0204   1.0330   1.1173   1.2214
     1.2286   1.2463   1.2565   1.2576   1.2719   1.3045   1.3226   1.3354
     1.4111   1.4138   1.5551   1.6617   1.6835   1.6921   1.6968   1.7005
     1.7367   1.7898   1.8250   1.8271   1.8518   1.8797   1.8961   1.9623
     2.0175   2.0540   2.0977   2.1361   2.1390   2.1411   2.1471   2.1627

     occupation numbers 
     1.0000   1.0000   1.0000   1.0000   1.0000   1.0000   1.0000   1.0000
     1.0000   1.0000   1.0000   1.0000   1.0000   1.0000   1.0000   1.0000
     1.0000   1.0000   1.0000   1.0000   1.0000   1.0000   1.0000   1.0000
     1.0000   1.0000   1.0000   1.0000   1.0000   1.0000   1.0000   1.0000
     1.0000   1.0000   1.0000   1.0000   1.0000   1.0000   1.0000   1.0000
     1.0000   1.0000   1.0000   1.0000   1.0000   1.0000   1.0000   1.0000
     1.0000   1.0000   1.0000   1.0000   1.0000   1.0000   1.0000   1.0000
     1.0000   1.0000   1.0000   1.0000   1.0000   1.0000   1.0000   1.0000
     1.0000   1.0000   1.0000   1.0000   1.0000   1.0000   1.0000   1.0000
     1.0000   1.0000   1.0000   1.0000   1.0000   1.0000   1.0000   1.0000
     1.0000   1.0000   1.0000   1.0000   1.0000   1.0000   1.0000   1.0000
     1.0000   1.0000   1.0000   1.0000   1.0000   1.0000   1.0000   1.0000
     1.0000   1.0000   1.0000   1.0000   1.0000   1.0000   1.0000   1.0000
     1.0000   1.0000   1.0000   1.0000   1.0000   1.0000   1.0000   1.0000
     1.0000   1.0000   1.0000   1.0000   1.0000   1.0000   1.0000   1.0000
     1.0000   1.0000   1.0000   1.0000   1.0000   1.0000   1.0000   1.0000
     1.0000   1.0000   1.0000   1.0000   1.0000   1.0000   1.0000   1.0000
     1.0000   1.0000   1.0000   1.0000   1.0000   1.0000   1.0000   1.0000
     1.0000   1.0000   1.0000   1.0000   1.0000   1.0000   1.0000   1.0000
     1.0000   1.0000   1.0000   1.0000   1.0000   1.0000   1.0000   1.0000
     1.0000   1.0000   1.0000   1.0000   1.0000   1.0000   1.0000   1.0000
     1.0000   1.0000   1.0000   1.0000   1.0000   1.0000   1.0000   1.0000
     1.0000   1.0000   1.0000   1.0000   1.0000   1.0000   1.0000   1.0000
     1.0000   1.0000   1.0000   1.0000   1.0000   1.0000   1.0000   1.0000
     1.0000   1.0000   1.0000   1.0000   1.0000   1.0000   1.0000   1.0000
     1.0000   1.0000   1.0000   1.0000   1.0000   1.0000   1.0000   1.0000
     1.0000   1.0000   1.0000   1.0000   1.0000   1.0000   1.0000   1.0000
     1.0000   1.0000   1.0000   1.0000   1.0000   1.0000   1.0000   1.0000
     1.0000   1.0000   1.0000   1.0000   1.0000   1.0000   1.0000   1.0000
     1.0000   1.0000   1.0000   1.0000   1.0000   1.0000   1.0000   1.0000
     1.0000   1.0000   1.0000   1.0000   1.0000   1.0000   1.0000   1.0000
     1.0000   1.0000   1.0000   1.0000   1.0000   1.0000   1.0000   1.0000
     1.0000   1.0000   1.0000   1.0000   1.0000   1.0000   1.0000   1.0000
     1.0000   1.0000   1.0000   1.0000   1.0000   1.0000   1.0000   1.0000
     1.0000   1.0000   1.0000   1.0000   1.0000   1.0000   1.0000   1.0000
     1.0000   1.0000   1.0000   1.0000   1.0000   1.0000   1.0000   1.0000
     1.0000   1.0000   1.0000   1.0000   1.0000   1.0000   1.0000   1.0000
     1.0000   1.0000   1.0000   1.0000   1.0000   1.0000   1.0000   1.0000
     1.0000   1.0000   1.0000   1.0000   1.0000   1.0000   1.0000   1.0000
     1.0000   1.0000   1.0000   1.0000   1.0000   1.0000   1.0000   1.0000
     1.0000   1.0000   1.0000   1.0000   1.0000   1.0000   1.0000   1.0000
     1.0000   1.0000   1.0000   1.0000   1.0000   1.0000   1.0000   1.0000
     1.0000   1.0000   1.0000   1.0000   1.0000   1.0000   1.0000   1.0000
     1.0000   1.0000   1.0000   1.0000   1.0000   1.0000   1.0000   1.0000
     1.0000   1.0000   1.0000   1.0000   1.0000   1.0000   1.0000   1.0000
     1.0000   1.0000   1.0000   1.0000   1.0000   1.0000   1.0000   1.0000
     1.0000   1.0000   1.0000   1.0000   1.0000   1.0000   1.0000   1.0000
     1.0000   1.0000   1.0000   1.0000   1.0000   1.0000   1.0000   1.0000
     1.0000   1.0000   1.0000   1.0000   1.0000   1.0000   1.0000   1.0000
     1.0000   1.0000   1.0000   1.0000   1.0000   1.0000   1.0000   1.0000
     1.0000   1.0000   1.0000   1.0000   1.0000   1.0000   1.0000   1.0000
     1.0000   1.0000   1.0000   1.0000   1.0000   1.0000   1.0000   1.0000
     1.0000   1.0000   1.0000   1.0000   1.0000   1.0000   1.0000   1.0000
     1.0000   1.0000   1.0000   1.0000   1.0000   1.0000   1.0000   1.0000
     1.0000   1.0000   1.0000   1.0000   1.0000   1.0000   1.0000   1.0000
     1.0000   1.0000   1.0000   1.0000   1.0000   1.0000   1.0000   1.0000
     1.0000   1.0000   1.0000   1.0000   1.0000   1.0000   1.0000   1.0000
     1.0000   1.0000   1.0000   1.0000   1.0000   1.0000   1.0000   1.0000
     1.0000   1.0000   1.0000   1.0000   1.0000   1.0000   1.0000   1.0000
     1.0000   1.0000   1.0000   1.0000   1.0000   1.0000   1.0000   1.0000
     1.0000   1.0000   1.0000   1.0000   1.0000   1.0000   1.0000   1.0000
     1.0000   1.0000   1.0000   1.0000   1.0000   1.0000   1.0000   1.0000
     1.0000   1.0000   1.0000   1.0000   1.0000   1.0000   1.0000   1.0000
     1.0000   1.0000   1.0000   1.0000   1.0000   1.0000   1.0000   1.0000
     1.0000   1.0000   1.0000   1.0000   1.0000   1.0000   1.0000   1.0000
     1.0000   1.0000   1.0000   1.0000   1.0000   1.0000   1.0000   1.0000
     1.0000   1.0000   1.0000   1.0000   1.0000   1.0000   1.0000   1.0000
     1.0000   1.0000   1.0000   1.0000   1.0000   1.0000   1.0000   1.0000
     1.0000   1.0000   1.0000   1.0000   1.0000   1.0000   1.0000   1.0000
     1.0000   1.0000   1.0000   1.0000   1.0000   1.0000   1.0000   1.0000
     1.0000   1.0000   1.0000   1.0000   1.0000   1.0000   1.0000   1.0000
     1.0000   1.0000   1.0000   1.0000   1.0000   1.0000   1.0000   1.0000
     1.0000   1.0000   1.0000   1.0000   1.0000   1.0000   1.0000   1.0000
     1.0000   1.0000   1.0000   1.0000   1.0000   1.0000   1.0000   1.0001
     1.0001   1.0001   1.0002   1.0002   1.0003   1.0004   1.0005   1.0006
     1.0007   1.0008   1.0012   1.0012   1.0015   1.0018   1.0023   1.0025
     1.0030   1.0033   1.0049   1.0060   1.0073   1.0085   1.0104   1.0137
     1.0146   1.0155   1.0184   1.0245   1.0271   1.0306   1.0391   1.0399
     1.0503   1.0707   1.0781   1.0820   1.0832   1.0811   1.0791   1.0772
     1.0757   1.0737   1.0672   1.0044   0.9975   0.9933   0.9503   0.9232
     0.9003   0.8470   0.8332   0.8145   0.7891   0.6750   0.5571   0.5329
     0.3857   0.3780   0.1310   0.1114   0.0353   0.0323   0.0035   0.0022
     0.0002   0.0000   0.0000   0.0000   0.0000   0.0000   0.0000   0.0000
     0.0000   0.0000   0.0000   0.0000   0.0000   0.0000   0.0000   0.0000
     0.0000   0.0000   0.0000   0.0000   0.0000   0.0000   0.0000   0.0000
     0.0000   0.0000   0.0000   0.0000   0.0000   0.0000   0.0000   0.0000
     0.0000   0.0000   0.0000   0.0000   0.0000   0.0000   0.0000   0.0000
     0.0000   0.0000   0.0000   0.0000   0.0000   0.0000   0.0000   0.0000
     0.0000   0.0000   0.0000   0.0000   0.0000   0.0000   0.0000   0.0000
     0.0000   0.0000   0.0000   0.0000   0.0000   0.0000   0.0000   0.0000
     0.0000   0.0000   0.0000   0.0000   0.0000   0.0000   0.0000   0.0000
     0.0000   0.0000   0.0000   0.0000   0.0000   0.0000   0.0000   0.0000
     0.0000   0.0000   0.0000   0.0000   0.0000   0.0000   0.0000   0.0000
     0.0000   0.0000   0.0000   0.0000   0.0000   0.0000   0.0000   0.0000
     0.0000   0.0000   0.0000   0.0000   0.0000   0.0000   0.0000   0.0000
     0.0000   0.0000   0.0000   0.0000   0.0000   0.0000   0.0000   0.0000
     0.0000   0.0000   0.0000   0.0000   0.0000   0.0000   0.0000   0.0000
     0.0000   0.0000   0.0000   0.0000   0.0000   0.0000   0.0000   0.0000
     0.0000   0.0000   0.0000   0.0000   0.0000   0.0000   0.0000   0.0000
     0.0000   0.0000   0.0000   0.0000   0.0000   0.0000   0.0000   0.0000

     the Fermi energy is    -4.4475 ev

!    total energy              =  -13507.57263721 Ry
     estimated scf accuracy    <          4.8E-09 Ry
     smearing contrib. (-TS)   =       0.05607368 Ry
     internal energy E=F+TS    =  -13507.62871089 Ry

     The total energy is F=E-TS. E is the sum of the following terms:
     one-electron contribution = -353969.85691868 Ry
     hartree contribution      =  177208.13500590 Ry
     xc contribution           =   -2441.03186048 Ry
     ewald contribution        =  172084.81903895 Ry
     DFT-D3 Dispersion         =      -3.53884702 Ry
     one-center paw contrib.   =   -6386.15512956 Ry
      -> PAW hartree energy AE =       2.28993332 Ry
      -> PAW hartree energy PS =      -2.28669090 Ry
      -> PAW xc energy AE      =     -36.95022453 Ry
      -> PAW xc energy PS      =       2.29134771 Ry
      -> total E_H with PAW    =  177208.13824832 Ry
      -> total E_XC with PAW   =   -2475.69073729 Ry

     total magnetization       =     0.02 Bohr mag/cell
     absolute magnetization    =     0.02 Bohr mag/cell

     convergence has been achieved in  17 iterations

     negative rho (up, down):  5.564E-03 5.564E-03

     Forces acting on atoms (cartesian axes, Ry/au):

     atom    1 type  1   force =    -0.00000138   -0.00000290   -0.07717761
     atom    2 type  1   force =    -0.00039329   -0.00078041   -0.00522135
     atom    3 type  1   force =    -0.00059434   -0.00031321   -0.01112087
     atom    4 type  1   force =    -0.00332758   -0.00162068   -0.00482123
     atom    5 type  1   force =     0.00000341   -0.00002345    0.00340776
     atom    6 type  1   force =     0.00005928    0.00008477    0.25123175
     atom    7 type  2   force =     0.07189271    0.02077061   -0.05443821
     atom    8 type  2   force =    -0.05393352    0.05187670   -0.05443766
     atom    9 type  2   force =    -0.01795873   -0.07264630   -0.05443943
     atom   10 type  2   force =    -0.00285060   -0.00019091   -0.00038560
     atom   11 type  2   force =    -0.00112957   -0.00114831   -0.00287084
     atom   12 type  2   force =     0.00353975    0.00171995    0.00055924
     atom   13 type  2   force =    -0.00075304    0.00007109    0.00251227
     atom   14 type  2   force =     0.00038692    0.00035361    0.00252423
     atom   15 type  2   force =     0.00044419    0.00062213    0.00251187
     atom   16 type  1   force =     0.00099206    0.00126792   -0.07585682
     atom   17 type  1   force =     0.00375649    0.00198855   -0.00471622
     atom   18 type  1   force =     0.00030115   -0.00000910   -0.01203780
     atom   19 type  1   force =     0.00033042   -0.00096723   -0.00624779
     atom   20 type  1   force =     0.00529908    0.00853492    0.01479386
     atom   21 type  1   force =     0.00011737    0.00015038    0.25107297
     atom   22 type  2   force =     0.07183954    0.02056952   -0.05468565
     atom   23 type  2   force =    -0.05412873    0.05168590   -0.05486884
     atom   24 type  2   force =    -0.01801684   -0.07266021   -0.05440822
     atom   25 type  2   force =    -0.00762115    0.00231377   -0.00406838
     atom   26 type  2   force =    -0.00389899   -0.00264263    0.00131748
     atom   27 type  2   force =     0.00100486   -0.00266825   -0.00111012
     atom   28 type  2   force =    -0.00078976   -0.00136635    0.00228778
     atom   29 type  2   force =     0.00024420   -0.00058553    0.00299467
     atom   30 type  2   force =    -0.00107546   -0.00042917    0.00242691
     atom   31 type  1   force =     0.00136570    0.00001446   -0.07597576
     atom   32 type  1   force =     0.00084776    0.00006787   -0.00521989
     atom   33 type  1   force =    -0.00014591    0.00026580   -0.01204446
     atom   34 type  1   force =     0.00064681    0.00076878   -0.00625605
     atom   35 type  1   force =     0.00598566    0.00084596    0.01434489
     atom   36 type  1   force =    -0.00010422    0.00000924    0.25123288
     atom   37 type  2   force =     0.07164564    0.02090608   -0.05494974
     atom   38 type  2   force =    -0.05394739    0.05193245   -0.05456112
     atom   39 type  2   force =    -0.01811574   -0.07274154   -0.05444537
     atom   40 type  2   force =    -0.00324844    0.00219062    0.00057099
     atom   41 type  2   force =     0.00160133   -0.00237493   -0.00038386
     atom   42 type  2   force =     0.00157056   -0.00041458   -0.00286439
     atom   43 type  2   force =    -0.00200114   -0.00045422    0.00093740
     atom   44 type  2   force =     0.00158403   -0.00000572    0.00227859
     atom   45 type  2   force =    -0.00049374    0.00015434    0.00253327
     atom   46 type  1   force =     0.00060553   -0.00150072   -0.07584597
     atom   47 type  1   force =    -0.00048007    0.00070062   -0.00522392
     atom   48 type  1   force =     0.00056785   -0.00035490   -0.01112454
     atom   49 type  1   force =     0.00307345   -0.00205982   -0.00482590
     atom   50 type  1   force =     0.00477224   -0.00888920    0.01481943
     atom   51 type  1   force =     0.00004495   -0.00009493    0.25123181
     atom   52 type  2   force =     0.07182496    0.02103511   -0.05487231
     atom   53 type  2   force =    -0.05391862    0.05193423   -0.05440955
     atom   54 type  2   force =    -0.01810564   -0.07250021   -0.05468900
     atom   55 type  2   force =    -0.00044225    0.00156631   -0.00286808
     atom   56 type  2   force =    -0.00028632   -0.00391700    0.00056128
     atom   57 type  2   force =     0.00125028    0.00257399   -0.00037612
     atom   58 type  2   force =    -0.00118117    0.00185351   -0.00067541
     atom   59 type  2   force =     0.00031283   -0.00068623    0.00251629
     atom   60 type  2   force =    -0.00079062    0.00137369    0.00228013
     atom   61 type  1   force =    -0.00069060    0.00117536   -0.07597622
     atom   62 type  1   force =    -0.00099979    0.00385409   -0.00047445
     atom   63 type  1   force =     0.00002600    0.00066820   -0.01113015
     atom   64 type  1   force =     0.00026241    0.00368649   -0.00484935
     atom   65 type  1   force =    -0.00370262    0.00476345    0.01437636
     atom   66 type  1   force =     0.00003560    0.00025633    0.25048450
     atom   67 type  2   force =     0.07205379    0.02068298   -0.05444657
     atom   68 type  2   force =    -0.05392951    0.05159233   -0.05495043
     atom   69 type  2   force =    -0.01800290   -0.07268508   -0.05455991
     atom   70 type  2   force =    -0.00317680    0.00520429   -0.01205515
     atom   71 type  2   force =    -0.00545957   -0.00857429   -0.00739132
     atom   72 type  2   force =     0.00631253   -0.00524751   -0.00377181
     atom   73 type  2   force =     0.00010774   -0.00050591    0.00253348
     atom   74 type  2   force =    -0.00101544   -0.00194841   -0.00065817
     atom   75 type  2   force =     0.00054772   -0.00108994    0.00063345
     atom   76 type  1   force =     0.00000341    0.00000673   -0.07269261
     atom   77 type  1   force =     0.00385077   -0.00103943   -0.00045059
     atom   78 type  1   force =     0.00086126    0.00056598   -0.00898098
     atom   79 type  1   force =     0.00414945    0.00095836   -0.00173694
     atom   80 type  1   force =     0.00000669    0.00003673    0.03115197
     atom   81 type  1   force =     0.00020464   -0.00015784    0.25048255
     atom   82 type  2   force =     0.07197754    0.02102890   -0.05547200
     atom   83 type  2   force =    -0.05420146    0.05181742   -0.05547357
     atom   84 type  2   force =    -0.01777709   -0.07284896   -0.05547077
     atom   85 type  2   force =    -0.00469515    0.00899374   -0.00739743
     atom   86 type  2   force =    -0.00769120   -0.00283270   -0.00375201
     atom   87 type  2   force =     0.00606786    0.00013147   -0.01201617
     atom   88 type  2   force =     0.00026546   -0.00030361   -0.00135852
     atom   89 type  2   force =    -0.00122156    0.00006557    0.00062688
     atom   90 type  2   force =    -0.00039665   -0.00009073   -0.00135911
     atom   91 type  1   force =    -0.00067641   -0.00118961   -0.07596091
     atom   92 type  1   force =    -0.00014986   -0.00425797   -0.00468275
     atom   93 type  1   force =     0.00005801   -0.00102470   -0.00896493
     atom   94 type  1   force =    -0.00124671   -0.00406715   -0.00170172
     atom   95 type  1   force =    -0.00229469   -0.00561193    0.01440318
     atom   96 type  1   force =     0.00007308   -0.00017809    0.25106942
     atom   97 type  2   force =     0.07194954    0.02075384   -0.05456297
     atom   98 type  2   force =    -0.05393957    0.05205911   -0.05444888
     atom   99 type  2   force =    -0.01771547   -0.07250069   -0.05495448
     atom  100 type  2   force =    -0.00033596    0.00471739    0.00129561
     atom  101 type  2   force =    -0.00282748    0.00047988   -0.00111850
     atom  102 type  2   force =     0.00579420    0.00543879   -0.00405842
     atom  103 type  2   force =     0.00067597    0.00102146    0.00061951
     atom  104 type  2   force =     0.00015421    0.00115129    0.00241843
     atom  105 type  2   force =     0.00060901    0.00195885    0.00091918
     atom  106 type  1   force =    -0.00000216   -0.00000517   -0.07796430
     atom  107 type  1   force =    -0.00360087    0.00224747   -0.00471373
     atom  108 type  1   force =    -0.00015350   -0.00025791   -0.01203927
     atom  109 type  1   force =    -0.00096865    0.00018607   -0.00624933
     atom  110 type  1   force =    -0.00000971   -0.00002909    0.00161518
     atom  111 type  1   force =    -0.00018858    0.00002453    0.25107290
     atom  112 type  2   force =     0.07182712    0.02057122   -0.05410667
     atom  113 type  2   force =    -0.05372849    0.05191866   -0.05410647
     atom  114 type  2   force =    -0.01809930   -0.07248777   -0.05410603
     atom  115 type  2   force =     0.00182394    0.00220969   -0.00111583
     atom  116 type  2   force =     0.00180880   -0.00774526   -0.00404292
     atom  117 type  2   force =     0.00424069   -0.00205198    0.00130744
     atom  118 type  2   force =    -0.00062817    0.00009247    0.00298371
     atom  119 type  2   force =     0.00139193   -0.00150563    0.00093768
     atom  120 type  2   force =     0.00038505    0.00050864    0.00298698
     atom  121 type  1   force =    -0.00159771    0.00023160   -0.07585166
     atom  122 type  1   force =    -0.00283993   -0.00278096   -0.00044326
     atom  123 type  1   force =    -0.00091874    0.00046717   -0.00897779
     atom  124 type  1   force =    -0.00290784    0.00313463   -0.00173350
     atom  125 type  1   force =    -0.01005367    0.00034978    0.01477765
     atom  126 type  1   force =    -0.00023987   -0.00009783    0.25048156
     atom  127 type  2   force =     0.07193579    0.02072636   -0.05440861
     atom  128 type  2   force =    -0.05373401    0.05192795   -0.05468870
     atom  129 type  2   force =    -0.01769723   -0.07271915   -0.05486915
     atom  130 type  2   force =     0.00140044    0.00805842   -0.00375557
     atom  131 type  2   force =    -0.00290284   -0.00533844   -0.01199696
     atom  132 type  2   force =     0.01014544   -0.00046133   -0.00739477
     atom  133 type  2   force =     0.00091411   -0.00071626    0.00242772
     atom  134 type  2   force =     0.00012498    0.00037619   -0.00137001
     atom  135 type  2   force =     0.00219600    0.00008685   -0.00066675
     atom  136 type  3   force =    -0.00000900    0.00002001    0.00068555
     atom  137 type  4   force =     0.00026353    0.00039944   -0.00104975
     atom  138 type  4   force =     0.00006160    0.00111649    0.00058401
     atom  139 type  3   force =     0.00080463   -0.00264208   -0.00029598
     atom  140 type  4   force =    -0.00000625    0.00079190   -0.00204774
     atom  141 type  4   force =    -0.00052504    0.00043200   -0.00012669
     atom  142 type  3   force =    -0.00080478   -0.00103063   -0.00028408
     atom  143 type  4   force =     0.00019192   -0.00033681   -0.00215758
     atom  144 type  4   force =     0.00009859   -0.00061338    0.00025481
     atom  145 type  3   force =    -0.00178833    0.00240787    0.00139624
     atom  146 type  4   force =     0.00004787   -0.00022022   -0.00105610
     atom  147 type  4   force =     0.00114869   -0.00062716    0.00037614
     atom  148 type  3   force =    -0.00269244    0.00064717   -0.00028280
     atom  149 type  4   force =     0.00047298    0.00120366   -0.00062055
     atom  150 type  4   force =     0.00090115    0.00038860    0.00085748
     atom  151 type  3   force =    -0.00113584   -0.00272702    0.00137980
     atom  152 type  4   force =     0.00021668    0.00015890   -0.00201493
     atom  153 type  4   force =     0.00048646    0.00037299    0.00033079
     atom  154 type  3   force =    -0.00005015   -0.00232353    0.00014465
     atom  155 type  4   force =     0.00005885    0.00016961   -0.00286647
     atom  156 type  4   force =     0.00004504    0.00017742   -0.00097137
     atom  157 type  3   force =    -0.00196228    0.00119563    0.00013443
     atom  158 type  4   force =     0.00057369   -0.00034200   -0.00210500
     atom  159 type  4   force =     0.00072801   -0.00010497   -0.00042794
     atom  160 type  3   force =    -0.00047284    0.00123563   -0.00029177
     atom  161 type  4   force =     0.00025815    0.00028039    0.00024157
     atom  162 type  4   force =    -0.00000323    0.00008665    0.00046906
     atom  163 type  3   force =    -0.00051984   -0.00078929   -0.00172934
     atom  164 type  4   force =     0.00024950   -0.00032569    0.00013424
     atom  165 type  4   force =     0.00022217   -0.00028084    0.00056775
     atom  166 type  3   force =     0.00127650   -0.00022766   -0.00027138
     atom  167 type  4   force =    -0.00071924   -0.00009083   -0.00223154
     atom  168 type  4   force =    -0.00028325   -0.00044188   -0.00035322
     atom  169 type  3   force =     0.00201385    0.00110653    0.00013890
     atom  170 type  4   force =    -0.00037728    0.00012712   -0.00216757
     atom  171 type  4   force =    -0.00056571   -0.00021098    0.00018304
     atom  172 type  3   force =     0.00294197    0.00043729    0.00139839
     atom  173 type  4   force =    -0.00114129   -0.00015585   -0.00058043
     atom  174 type  4   force =    -0.00092129    0.00049598    0.00074912
     atom  175 type  3   force =     0.00092001   -0.00012846   -0.00173174
     atom  176 type  4   force =    -0.00043623    0.00033816    0.00005385
     atom  177 type  4   force =    -0.00023577   -0.00005271    0.00060085
     atom  178 type  3   force =    -0.00040683    0.00081710   -0.00175188
     atom  179 type  4   force =     0.00062545   -0.00086430   -0.00072939
     atom  180 type  4   force =     0.00003317   -0.00122055    0.00081513
     atom  181 type  3   force =     0.00188980    0.00204848   -0.00028830
     atom  182 type  4   force =    -0.00024278    0.00016071   -0.00101885
     atom  183 type  4   force =    -0.00123350   -0.00084991    0.00044107
     atom  184 type  5   force =    -0.00030119    0.00006967    0.00166134
     atom  185 type  5   force =    -0.00043452   -0.00011484    0.00145307
     atom  186 type  5   force =    -0.00026896   -0.00013381    0.00132108
     atom  187 type  5   force =    -0.00010544    0.00009212    0.00132451
     atom  188 type  5   force =     0.00011976    0.00044373    0.00144742
     atom  189 type  5   force =     0.00000736    0.00010374    0.00174347
     atom  190 type  5   force =    -0.00008469   -0.00004065    0.00174846
     atom  191 type  5   force =    -0.00021234   -0.00033089    0.00144497
     atom  192 type  5   force =     0.00005626   -0.00027550    0.00137830
     atom  193 type  5   force =     0.00023450    0.00013172    0.00160041
     atom  194 type  5   force =     0.00020050    0.00024202    0.00165697
     atom  195 type  5   force =     0.00007060   -0.00005329    0.00174699
     atom  196 type  5   force =     0.00009913   -0.00031220    0.00166162
     atom  197 type  5   force =     0.00006449   -0.00044747    0.00141846
     atom  198 type  5   force =     0.00004686   -0.00002961    0.00157088
     atom  199 type  5   force =     0.00034585    0.00028035    0.00141519
     atom  200 type  5   force =     0.00037514   -0.00002900    0.00144631
     atom  201 type  5   force =     0.00031164   -0.00034122    0.00145344
     atom  202 type  5   force =    -0.00000945   -0.00028066    0.00160332
     atom  203 type  5   force =    -0.00005259   -0.00001050    0.00156750
     atom  204 type  5   force =     0.00001309    0.00007349    0.00157642
     atom  205 type  5   force =     0.00021018    0.00018362    0.00138178
     atom  206 type  5   force =     0.00023952   -0.00018972    0.00132673
     atom  207 type  5   force =     0.00013177    0.00002989    0.00132119
     atom  208 type  5   force =    -0.00025490    0.00009555    0.00137616
     atom  209 type  5   force =    -0.00040482    0.00018484    0.00141524
     atom  210 type  5   force =    -0.00022061    0.00014950    0.00160388
     atom  211 type  5   force =    -0.00002951   -0.00014769    0.00132683
     atom  212 type  5   force =    -0.00000403   -0.00000986    0.00126027
     atom  213 type  5   force =     0.00002430    0.00029665    0.00131983
     atom  214 type  5   force =    -0.00016061    0.00036309    0.00144722
     atom  215 type  6   force =    -0.00015312   -0.00008540   -0.00146335
     atom  216 type  6   force =     0.00014247   -0.00024495   -0.00130211
     atom  217 type  6   force =     0.00028569   -0.00066212   -0.00105994
     atom  218 type  6   force =     0.00035407   -0.00022844   -0.00114483
     atom  219 type  6   force =     0.00042037    0.00057985   -0.00105715
     atom  220 type  6   force =    -0.00004056    0.00013882   -0.00079218
     atom  221 type  6   force =    -0.00026951   -0.00040477   -0.00098086
     atom  222 type  6   force =    -0.00020095   -0.00035298   -0.00083100
     atom  223 type  6   force =    -0.00036818   -0.00020079   -0.00114803
     atom  224 type  6   force =     0.00001641    0.00042437   -0.00114423
     atom  225 type  6   force =     0.00040099    0.00036204   -0.00090739
     atom  226 type  6   force =     0.00004972   -0.00024389   -0.00113726
     atom  227 type  6   force =    -0.00017142   -0.00003344   -0.00100767
     atom  228 type  6   force =    -0.00050656    0.00016861   -0.00091237
     atom  229 type  6   force =    -0.00070343    0.00008801   -0.00106269
     atom  230 type  6   force =    -0.00019720    0.00036333   -0.00082362
     atom  231 type  6   force =     0.00005959    0.00015516   -0.00100251
     atom  232 type  6   force =    -0.00000384   -0.00001630   -0.00116757
     atom  233 type  6   force =     0.00017687    0.00015781   -0.00113797
     atom  234 type  6   force =    -0.00009577   -0.00009194   -0.00078916
     atom  235 type  6   force =    -0.00027657    0.00002361   -0.00130166
     atom  236 type  6   force =    -0.00021361    0.00044139   -0.00098570
     atom  237 type  6   force =    -0.00023813    0.00005657   -0.00114842
     atom  238 type  6   force =     0.00010089   -0.00014831   -0.00100392
     atom  239 type  6   force =     0.00048188   -0.00002803   -0.00098631
     atom  240 type  6   force =     0.00016372   -0.00007087   -0.00146364
     atom  241 type  6   force =     0.00000208    0.00019725   -0.00146790
     atom  242 type  6   force =     0.00013583   -0.00004017   -0.00077989
     atom  243 type  6   force =     0.00010169   -0.00054133   -0.00091272
     atom  244 type  6   force =     0.00039917   -0.00000653   -0.00082930
     atom  245 type  6   force =     0.00014279    0.00025176   -0.00130233
     The non-local contrib.  to forces
     atom    1 type  1   force =     0.00000181    0.00000079   -0.06901913
     atom    2 type  1   force =    -0.00006310    0.00044005   -0.04634976
     atom    3 type  1   force =     0.00027798    0.00008954    0.07625767
     atom    4 type  1   force =     0.00163694    0.00137317   -0.07829237
     atom    5 type  1   force =    -0.00000538    0.00000844    0.09425856
     atom    6 type  1   force =     0.00012038    0.00016019   -0.19558271
     atom    7 type  2   force =     0.58287610    0.08903650    0.01498468
     atom    8 type  2   force =    -0.36854309    0.46028201    0.01499064
     atom    9 type  2   force =    -0.21433172   -0.54930207    0.01497866
     atom   10 type  2   force =     0.47494594   -0.42470449   -0.67675036
     atom   11 type  2   force =     0.11895288    0.62123403   -0.68028852
     atom   12 type  2   force =    -0.59263377   -0.19783206   -0.67351017
     atom   13 type  2   force =     0.10168453    0.13177011    0.04958778
     atom   14 type  2   force =    -0.16434917    0.02771660    0.04935852
     atom   15 type  2   force =     0.06330240   -0.15392131    0.04958242
     atom   16 type  1   force =    -0.00059992   -0.00086365   -0.06926007
     atom   17 type  1   force =    -0.00210172   -0.00064281   -0.04688578
     atom   18 type  1   force =    -0.00016320   -0.00003737    0.07652772
     atom   19 type  1   force =     0.00015543    0.00049302   -0.07742685
     atom   20 type  1   force =    -0.00067491   -0.00146294    0.08969911
     atom   21 type  1   force =    -0.00026224   -0.00000390   -0.19542341
     atom   22 type  2   force =     0.58199906    0.08660970    0.01369585
     atom   23 type  2   force =    -0.37000339    0.45876038    0.01241530
     atom   24 type  2   force =    -0.21503470   -0.55000811    0.01527006
     atom   25 type  2   force =     0.45075664   -0.41592942   -0.69827541
     atom   26 type  2   force =     0.10869768    0.61569380   -0.66786443
     atom   27 type  2   force =    -0.60575910   -0.21285615   -0.67680108
     atom   28 type  2   force =     0.10155052    0.12402913    0.04763731
     atom   29 type  2   force =    -0.16598670    0.02277763    0.05179556
     atom   30 type  2   force =     0.05555371   -0.15897903    0.04911405
     atom   31 type  1   force =    -0.00053868    0.00003936   -0.06926045
     atom   32 type  1   force =    -0.00034176   -0.00028148   -0.04635057
     atom   33 type  1   force =     0.00011664   -0.00012165    0.07653050
     atom   34 type  1   force =    -0.00049025   -0.00011021   -0.07742352
     atom   35 type  1   force =    -0.00203394   -0.00043481    0.09022194
     atom   36 type  1   force =    -0.00019828    0.00002245   -0.19558336
     atom   37 type  2   force =     0.57834482    0.08817204    0.01125520
     atom   38 type  2   force =    -0.37088850    0.46117416    0.01487807
     atom   39 type  2   force =    -0.21656035   -0.55048144    0.01537408
     atom   40 type  2   force =     0.46769706   -0.41438703   -0.67344481
     atom   41 type  2   force =     0.13042272    0.62368381   -0.67683277
     atom   42 type  2   force =    -0.59742283   -0.20764434   -0.68025091
     atom   43 type  2   force =     0.09501558    0.12749820    0.04108181
     atom   44 type  2   force =    -0.15815519    0.02590968    0.04758866
     atom   45 type  2   force =     0.05820764   -0.15620962    0.04940553
     atom   46 type  1   force =    -0.00044879    0.00095396   -0.06926332
     atom   47 type  1   force =     0.00041134   -0.00015606   -0.04634962
     atom   48 type  1   force =    -0.00021449    0.00019566    0.07625911
     atom   49 type  1   force =    -0.00201236    0.00072897   -0.07829182
     atom   50 type  1   force =    -0.00093923    0.00132734    0.08973252
     atom   51 type  1   force =     0.00007853   -0.00018402   -0.19558300
     atom   52 type  2   force =     0.58228333    0.09105557    0.01238984
     atom   53 type  2   force =    -0.36881150    0.46125074    0.01527051
     atom   54 type  2   force =    -0.21599879   -0.54732150    0.01367694
     atom   55 type  2   force =     0.47844494   -0.41354205   -0.68022048
     atom   56 type  2   force =     0.12494103    0.61219397   -0.67346530
     atom   57 type  2   force =    -0.60535260   -0.19889089   -0.67679452
     atom   58 type  2   force =     0.09980312    0.13850202    0.03456466
     atom   59 type  2   force =    -0.16497339    0.02218535    0.04960455
     atom   60 type  2   force =     0.05662073   -0.14992482    0.04759513
     atom   61 type  1   force =     0.00023306   -0.00048582   -0.06925987
     atom   62 type  1   force =    -0.00010682   -0.00167296   -0.04833116
     atom   63 type  1   force =    -0.00006155   -0.00028199    0.07626122
     atom   64 type  1   force =     0.00037045   -0.00210238   -0.07828918
     atom   65 type  1   force =     0.00139048   -0.00154398    0.09019952
     atom   66 type  1   force =     0.00007701   -0.00030091   -0.19466355
     atom   67 type  2   force =     0.58500931    0.08769594    0.01537090
     atom   68 type  2   force =    -0.36553631    0.45677031    0.01125485
     atom   69 type  2   force =    -0.21394928   -0.55178400    0.01488481
     atom   70 type  2   force =     0.47299303   -0.40442173   -0.73033355
     atom   71 type  2   force =     0.10144477    0.59147886   -0.71469917
     atom   72 type  2   force =    -0.58452308   -0.22901849   -0.69723550
     atom   73 type  2   force =     0.10614999    0.12850713    0.04940607
     atom   74 type  2   force =    -0.16986762    0.01718731    0.03464643
     atom   75 type  2   force =     0.06268992   -0.16231650    0.04089438
     atom   76 type  1   force =    -0.00000223   -0.00000300   -0.07004359
     atom   77 type  1   force =    -0.00140236    0.00091891   -0.04833715
     atom   78 type  1   force =    -0.00036539   -0.00024978    0.07547130
     atom   79 type  1   force =    -0.00188940   -0.00081703   -0.07914998
     atom   80 type  1   force =     0.00000031   -0.00001030    0.07821267
     atom   81 type  1   force =    -0.00029802    0.00008265   -0.19466060
     atom   82 type  2   force =     0.58272202    0.08824149    0.01013295
     atom   83 type  2   force =    -0.36778557    0.46050951    0.01012131
     atom   84 type  2   force =    -0.21493508   -0.54878672    0.01013918
     atom   85 type  2   force =     0.46155435   -0.38372249   -0.71485501
     atom   86 type  2   force =     0.09393923    0.62079442   -0.69724658
     atom   87 type  2   force =    -0.58686543   -0.20749332   -0.73021012
     atom   88 type  2   force =     0.10635657    0.12673428    0.03062010
     atom   89 type  2   force =    -0.17193620    0.02684662    0.04086646
     atom   90 type  2   force =     0.05657324   -0.15553963    0.03061751
     atom   91 type  1   force =     0.00030704    0.00044630   -0.06926379
     atom   92 type  1   force =     0.00049037    0.00214387   -0.04689386
     atom   93 type  1   force =    -0.00003313    0.00044078    0.07546526
     atom   94 type  1   force =     0.00023765    0.00204474   -0.07915737
     atom   95 type  1   force =     0.00064696    0.00198159    0.09022349
     atom   96 type  1   force =     0.00012870    0.00023029   -0.19541934
     atom   97 type  2   force =     0.58483852    0.09060826    0.01486660
     atom   98 type  2   force =    -0.36844060    0.46279047    0.01535934
     atom   99 type  2   force =    -0.21280306   -0.54494387    0.01123078
     atom  100 type  2   force =     0.47891373   -0.40188911   -0.66803373
     atom  101 type  2   force =     0.11845996    0.63116667   -0.67694359
     atom  102 type  2   force =    -0.58569798   -0.18240531   -0.69832729
     atom  103 type  2   force =     0.10925025    0.13544668    0.04082907
     atom  104 type  2   force =    -0.16551104    0.03141336    0.04907331
     atom  105 type  2   force =     0.06290786   -0.14603127    0.04099293
     atom  106 type  1   force =     0.00000032    0.00000282   -0.06870559
     atom  107 type  1   force =     0.00160730   -0.00149345   -0.04688470
     atom  108 type  1   force =     0.00004676    0.00016344    0.07652846
     atom  109 type  1   force =     0.00033470   -0.00037263   -0.07742701
     atom  110 type  1   force =     0.00000848    0.00000968    0.09316481
     atom  111 type  1   force =     0.00013607   -0.00022691   -0.19542322
     atom  112 type  2   force =     0.58288896    0.08916999    0.01625948
     atom  113 type  2   force =    -0.36865461    0.46021425    0.01626141
     atom  114 type  2   force =    -0.21422245   -0.54936536    0.01625714
     atom  115 type  2   force =     0.48729605   -0.41814481   -0.67684131
     atom  116 type  2   force =     0.13485781    0.59837824   -0.69816136
     atom  117 type  2   force =    -0.58754451   -0.21370918   -0.66793240
     atom  118 type  2   force =     0.10272237    0.13240716    0.05174742
     atom  119 type  2   force =    -0.15793640    0.01854130    0.04108520
     atom  120 type  2   force =     0.06326870   -0.15511114    0.05176085
     atom  121 type  1   force =     0.00104894   -0.00009042   -0.06926169
     atom  122 type  1   force =     0.00150151    0.00073964   -0.04833922
     atom  123 type  1   force =     0.00039856   -0.00019201    0.07547029
     atom  124 type  1   force =     0.00165791   -0.00123511   -0.07915172
     atom  125 type  1   force =     0.00161270    0.00013635    0.08972516
     atom  126 type  1   force =     0.00022218    0.00021435   -0.19465945
     atom  127 type  2   force =     0.58385641    0.08876939    0.01527330
     atom  128 type  2   force =    -0.36599135    0.46070470    0.01367674
     atom  129 type  2   force =    -0.21229146   -0.54981630    0.01240757
     atom  130 type  2   force =     0.49068392   -0.39185164   -0.69725374
     atom  131 type  2   force =     0.11381519    0.61192169   -0.73023516
     atom  132 type  2   force =    -0.56302486   -0.20800131   -0.71478461
     atom  133 type  2   force =     0.10992422    0.12760026    0.04911656
     atom  134 type  2   force =    -0.16295962    0.02871464    0.03056645
     atom  135 type  2   force =     0.07005354   -0.15574098    0.03460908
     atom  136 type  3   force =     0.00004435    0.00002377    0.00577282
     atom  137 type  4   force =     0.00083673   -0.00113969   -0.29329227
     atom  138 type  4   force =    -0.00347491   -0.01155135    0.28963626
     atom  139 type  3   force =    -0.00083735   -0.00203615    0.00559371
     atom  140 type  4   force =    -0.00167570   -0.00350885   -0.28952853
     atom  141 type  4   force =    -0.00070085   -0.01234014    0.24877271
     atom  142 type  3   force =    -0.00321372   -0.00056235    0.00617561
     atom  143 type  4   force =    -0.00445615    0.00079008   -0.29457648
     atom  144 type  4   force =    -0.00419504    0.00306981    0.24367462
     atom  145 type  3   force =    -0.00263057   -0.00099113    0.00121839
     atom  146 type  4   force =    -0.00164306    0.00031735   -0.29347231
     atom  147 type  4   force =    -0.00799384    0.00876387    0.28953361
     atom  148 type  3   force =    -0.00153316    0.00181299    0.00538640
     atom  149 type  4   force =    -0.00135880    0.00055151   -0.30016567
     atom  150 type  4   force =    -0.00126383   -0.00644338    0.29002691
     atom  151 type  3   force =     0.00202255   -0.00184722    0.00130501
     atom  152 type  4   force =     0.00161181   -0.00449501   -0.29440951
     atom  153 type  4   force =    -0.00072897   -0.00529905    0.24367319
     atom  154 type  3   force =    -0.00015538   -0.00315481    0.00563401
     atom  155 type  4   force =     0.00007040    0.00029589   -0.28509165
     atom  156 type  4   force =     0.00003075    0.00010802    0.20383362
     atom  157 type  3   force =    -0.00260417    0.00157815    0.00547843
     atom  158 type  4   force =    -0.00233864    0.00341015   -0.28964590
     atom  159 type  4   force =    -0.01010601    0.00619891    0.24854963
     atom  160 type  3   force =     0.00104438    0.00302521    0.00593843
     atom  161 type  4   force =    -0.00036157    0.00166399   -0.30037209
     atom  162 type  4   force =    -0.00083356    0.00204583    0.29069497
     atom  163 type  3   force =    -0.00146326    0.00048807    0.01166784
     atom  164 type  4   force =     0.00179854   -0.00047415   -0.30039230
     atom  165 type  4   force =     0.00235001   -0.00074691    0.29074757
     atom  166 type  3   force =     0.00211616   -0.00244609    0.00627946
     atom  167 type  4   force =     0.00383924    0.00077822   -0.28981701
     atom  168 type  4   force =     0.01069485    0.00564034    0.24857282
     atom  169 type  3   force =     0.00280218    0.00136077    0.00546174
     atom  170 type  4   force =     0.00287490    0.00381048   -0.29448223
     atom  171 type  4   force =     0.00491457    0.00135316    0.24357887
     atom  172 type  3   force =     0.00065468    0.00264971    0.00109521
     atom  173 type  4   force =     0.00043414   -0.00131795   -0.30023893
     atom  174 type  4   force =     0.00602769    0.00208945    0.28999615
     atom  175 type  3   force =     0.00039466   -0.00141145    0.01168324
     atom  176 type  4   force =    -0.00133232   -0.00078301   -0.30037555
     atom  177 type  4   force =    -0.00154644   -0.00187532    0.29069862
     atom  178 type  3   force =     0.00114088    0.00114793    0.01132444
     atom  179 type  4   force =     0.00084649    0.00112082   -0.30029891
     atom  180 type  4   force =    -0.00471923    0.00376842    0.29011388
     atom  181 type  3   force =     0.00222155    0.00030152    0.00534619
     atom  182 type  4   force =     0.00093461    0.00159769   -0.29337347
     atom  183 type  4   force =     0.01144428    0.00228088    0.28966032
     atom  184 type  5   force =    -0.00070276   -0.00078466   -0.00041819
     atom  185 type  5   force =    -0.00119109    0.00083963   -0.00018503
     atom  186 type  5   force =    -0.00091242   -0.00026972    0.00049030
     atom  187 type  5   force =    -0.00013167   -0.00029712   -0.00139728
     atom  188 type  5   force =     0.00131149    0.00062405   -0.00019938
     atom  189 type  5   force =     0.00054357    0.00007064   -0.00181900
     atom  190 type  5   force =    -0.00031276    0.00045234   -0.00181024
     atom  191 type  5   force =    -0.00086894    0.00000404    0.00371488
     atom  192 type  5   force =    -0.00098373   -0.00078787    0.00197371
     atom  193 type  5   force =    -0.00057604    0.00015071   -0.00186068
     atom  194 type  5   force =    -0.00034398    0.00101913   -0.00040634
     atom  195 type  5   force =    -0.00023350   -0.00049605   -0.00180960
     atom  196 type  5   force =     0.00104240   -0.00022928   -0.00040898
     atom  197 type  5   force =     0.00096871   -0.00041243    0.00145242
     atom  198 type  5   force =    -0.00001722   -0.00032217   -0.00199222
     atom  199 type  5   force =    -0.00013026    0.00104410    0.00146466
     atom  200 type  5   force =     0.00041927   -0.00077499    0.00370759
     atom  201 type  5   force =    -0.00013786   -0.00146308   -0.00019875
     atom  202 type  5   force =     0.00039913    0.00042302   -0.00185557
     atom  203 type  5   force =    -0.00027325    0.00018495   -0.00197969
     atom  204 type  5   force =     0.00030461    0.00015061   -0.00199810
     atom  205 type  5   force =     0.00117901   -0.00047461    0.00197349
     atom  206 type  5   force =     0.00068181   -0.00067823    0.00046984
     atom  207 type  5   force =    -0.00019382    0.00025820   -0.00138579
     atom  208 type  5   force =    -0.00018037    0.00124571    0.00198179
     atom  209 type  5   force =    -0.00083483   -0.00062621    0.00146262
     atom  210 type  5   force =     0.00016826   -0.00056546   -0.00186198
     atom  211 type  5   force =     0.00032367    0.00002719   -0.00139426
     atom  212 type  5   force =    -0.00000128   -0.00000614   -0.00280192
     atom  213 type  5   force =     0.00023067    0.00092406    0.00047791
     atom  214 type  5   force =     0.00046075    0.00076683    0.00368960
     atom  215 type  6   force =    -0.00027283   -0.00043842   -0.00347287
     atom  216 type  6   force =    -0.00004949   -0.00030303   -0.00575393
     atom  217 type  6   force =     0.00088222    0.00067189   -0.01431714
     atom  218 type  6   force =    -0.00017401    0.00053853   -0.00280672
     atom  219 type  6   force =    -0.00103840    0.00043017   -0.01440447
     atom  220 type  6   force =    -0.00032877   -0.00010921   -0.01863661
     atom  221 type  6   force =    -0.00052732   -0.00065353   -0.00182179
     atom  222 type  6   force =     0.00016402    0.00041944    0.00473892
     atom  223 type  6   force =     0.00054556   -0.00012716   -0.00284486
     atom  224 type  6   force =    -0.00038134   -0.00042067   -0.00284016
     atom  225 type  6   force =    -0.00024591    0.00078757   -0.01872773
     atom  226 type  6   force =    -0.00045318    0.00078356   -0.01421460
     atom  227 type  6   force =    -0.00142348    0.00065372   -0.00133662
     atom  228 type  6   force =    -0.00053919   -0.00060964   -0.01875356
     atom  229 type  6   force =     0.00015229   -0.00110775   -0.01439332
     atom  230 type  6   force =     0.00027874   -0.00033740    0.00479030
     atom  231 type  6   force =     0.00127743    0.00090976   -0.00130261
     atom  232 type  6   force =     0.00000217   -0.00000883   -0.00007620
     atom  233 type  6   force =    -0.00043843   -0.00080140   -0.01424132
     atom  234 type  6   force =     0.00027852   -0.00021888   -0.01857571
     atom  235 type  6   force =    -0.00023690    0.00020941   -0.00576502
     atom  236 type  6   force =    -0.00031372    0.00078752   -0.00194261
     atom  237 type  6   force =     0.00089286   -0.00000854   -0.01436051
     atom  238 type  6   force =     0.00014960   -0.00158781   -0.00127660
     atom  239 type  6   force =     0.00084381   -0.00012784   -0.00189947
     atom  240 type  6   force =     0.00053068   -0.00000386   -0.00344938
     atom  241 type  6   force =    -0.00024402    0.00046295   -0.00351227
     atom  242 type  6   force =     0.00005304    0.00033417   -0.01844888
     atom  243 type  6   force =     0.00078932   -0.00018664   -0.01870250
     atom  244 type  6   force =    -0.00045145   -0.00006660    0.00474950
     atom  245 type  6   force =     0.00028479    0.00011557   -0.00583013
     The ionic contribution  to forces
     atom    1 type  1   force =    -0.00000979   -0.00027376  -48.77692343
     atom    2 type  1   force =     0.00844325   -0.00579154  -27.24220644
     atom    3 type  1   force =     0.00189882    0.00111962  -55.00407179
     atom    4 type  1   force =     0.00232187    0.00137869  -23.27576317
     atom    5 type  1   force =     0.00005588   -0.00130647  -11.26353938
     atom    6 type  1   force =     0.00072025   -0.00057120  -72.68637151
     atom    7 type  2   force =     0.21491495    0.12012339 -128.92457046
     atom    8 type  2   force =    -0.21172866    0.12549340 -128.92480177
     atom    9 type  2   force =    -0.00322287   -0.24635553 -128.92445171
     atom   10 type  2   force =    -0.44289867    0.11907346  -24.04550569
     atom   11 type  2   force =     0.08530691   -0.38035520  -24.13762283
     atom   12 type  2   force =     0.35750477    0.25139373  -24.00407186
     atom   13 type  2   force =    -1.26528637   -0.37905319  -77.56023382
     atom   14 type  2   force =     0.96968283   -0.90377982  -77.57227475
     atom   15 type  2   force =     0.30429245    1.28439726  -77.56043839
     atom   16 type  1   force =     0.00076873   -0.00257502  -48.78301220
     atom   17 type  1   force =     0.00246056    0.00163408  -27.26114499
     atom   18 type  1   force =     0.00116953   -0.00096703  -55.00696615
     atom   19 type  1   force =     0.00083308   -0.00086243  -23.27776308
     atom   20 type  1   force =    -0.02615616   -0.05765836  -11.34383232
     atom   21 type  1   force =    -0.00001549    0.00004340  -72.68796525
     atom   22 type  2   force =     0.21717918    0.11718169 -128.92929397
     atom   23 type  2   force =    -0.21247157    0.12643833 -128.93118578
     atom   24 type  2   force =    -0.00241688   -0.25010368 -128.92865405
     atom   25 type  2   force =    -0.42598904    0.19905105  -24.06227094
     atom   26 type  2   force =     0.02218603   -0.36808496  -24.03111696
     atom   27 type  2   force =     0.34883531    0.14906382  -24.11943152
     atom   28 type  2   force =    -1.25741525   -0.39346011  -77.56763790
     atom   29 type  2   force =     0.96115137   -0.89688209  -77.57935935
     atom   30 type  2   force =     0.30074459    1.27846956  -77.57696482
     atom   31 type  1   force =    -0.00161871    0.00230130  -48.78237731
     atom   32 type  1   force =    -0.00025579    0.01031815  -27.24157580
     atom   33 type  1   force =    -0.00001573    0.00164861  -55.00694108
     atom   34 type  1   force =    -0.00060365    0.00169716  -23.27762627
     atom   35 type  1   force =    -0.05428749    0.00895613  -11.33903621
     atom   36 type  1   force =    -0.00000293    0.00091690  -72.68628422
     atom   37 type  2   force =     0.21498177    0.12188428 -128.93049140
     atom   38 type  2   force =    -0.21422804    0.13014191 -128.92693335
     atom   39 type  2   force =    -0.00491424   -0.24590175 -128.93018325
     atom   40 type  2   force =    -0.39923964    0.18463464  -24.00430766
     atom   41 type  2   force =     0.11440403   -0.44488314  -24.04197436
     atom   42 type  2   force =     0.28367922    0.26589418  -24.13515751
     atom   43 type  2   force =    -1.26325969   -0.38129175  -77.57957741
     atom   44 type  2   force =     0.96834195   -0.89206066  -77.56580222
     atom   45 type  2   force =     0.29659185    1.29222387  -77.57222689
     atom   46 type  1   force =    -0.00247257    0.00027676  -48.78228323
     atom   47 type  1   force =    -0.00829009   -0.00601868  -27.24215171
     atom   48 type  1   force =    -0.00194284    0.00110264  -55.00411155
     atom   49 type  1   force =    -0.00249596    0.00141717  -23.27595945
     atom   50 type  1   force =    -0.03602120    0.04934477  -11.34038471
     atom   51 type  1   force =    -0.00072161   -0.00055067  -72.68637088
     atom   52 type  2   force =     0.21564612    0.12055351 -128.93041446
     atom   53 type  2   force =    -0.21507369    0.12654642 -128.92831231
     atom   54 type  2   force =    -0.00696011   -0.24674480 -128.92845640
     atom   55 type  2   force =    -0.36929942    0.11089749  -24.13563398
     atom   56 type  2   force =     0.04183607   -0.44027537  -24.00839823
     atom   57 type  2   force =     0.32796460    0.31962625  -24.04262898
     atom   58 type  2   force =    -1.26461873   -0.38217219  -77.57971147
     atom   59 type  2   force =     0.96092328   -0.90749483  -77.56131488
     atom   60 type  2   force =     0.28897184    1.28435922  -77.56592636
     atom   61 type  1   force =    -0.00082394   -0.00246437  -48.78280762
     atom   62 type  1   force =     0.00117777   -0.00436993  -27.25343172
     atom   63 type  1   force =     0.00003504   -0.00250575  -55.00459381
     atom   64 type  1   force =     0.00012195   -0.00391667  -23.27777575
     atom   65 type  1   force =     0.02106464   -0.05122676  -11.34119945
     atom   66 type  1   force =     0.00002261   -0.00073283  -72.68792961
     atom   67 type  2   force =     0.21573878    0.11878796 -128.93036513
     atom   68 type  2   force =    -0.21264884    0.12558224 -128.93093845
     atom   69 type  2   force =    -0.00534677   -0.25077744 -128.92745509
     atom   70 type  2   force =    -0.42561203    0.23705496  -24.18875630
     atom   71 type  2   force =     0.01447033   -0.44331757  -24.04780162
     atom   72 type  2   force =     0.41181816    0.17831842  -24.03959735
     atom   73 type  2   force =    -1.26634626   -0.38962232  -77.57302291
     atom   74 type  2   force =     0.96333257   -0.90370234  -77.58239932
     atom   75 type  2   force =     0.29660919    1.27369019  -77.57312939
     atom   76 type  1   force =     0.00004015    0.00043317  -48.78523220
     atom   77 type  1   force =    -0.00456721    0.00218723  -27.25151074
     atom   78 type  1   force =    -0.00053685    0.00005487  -55.00825338
     atom   79 type  1   force =    -0.00028782    0.00263280  -23.27936515
     atom   80 type  1   force =     0.00025755    0.00229047  -11.45546893
     atom   81 type  1   force =    -0.00067244    0.00046908  -72.68769273
     atom   82 type  2   force =     0.21771056    0.12100858 -128.93172604
     atom   83 type  2   force =    -0.21322630    0.12852290 -128.93152471
     atom   84 type  2   force =    -0.00439071   -0.24839734 -128.93204896
     atom   85 type  2   force =    -0.39378457    0.21407124  -24.04162754
     atom   86 type  2   force =    -0.04951290   -0.44604972  -24.03190673
     atom   87 type  2   force =     0.41682410    0.25492276  -24.18453447
     atom   88 type  2   force =    -1.25911706   -0.38610797  -77.58117499
     atom   89 type  2   force =     0.95523191   -0.89309734  -77.57096163
     atom   90 type  2   force =     0.29426055    1.28557315  -77.58044963
     atom   91 type  1   force =     0.00244564    0.00013157  -48.78209937
     atom   92 type  1   force =    -0.00018830   -0.00389980  -27.25999146
     atom   93 type  1   force =     0.00008385    0.00058441  -55.00771857
     atom   94 type  1   force =     0.00150910   -0.00063372  -23.27723310
     atom   95 type  1   force =     0.03330525    0.04155899  -11.33801548
     atom   96 type  1   force =     0.00000777   -0.00013464  -72.68780507
     atom   97 type  2   force =     0.21955714    0.12026974 -128.92688128
     atom   98 type  2   force =    -0.21085269    0.12693058 -128.92989646
     atom   99 type  2   force =    -0.00229229   -0.24694890 -128.93007239
     atom  100 type  2   force =    -0.33298957    0.16244642  -24.02925921
     atom  101 type  2   force =    -0.04444357   -0.38053976  -24.11751371
     atom  102 type  2   force =     0.38392558    0.26665238  -24.05570634
     atom  103 type  2   force =    -1.25177886   -0.38041915  -77.57044174
     atom  104 type  2   force =     0.95723676   -0.90126107  -77.57558466
     atom  105 type  2   force =     0.30043487    1.28426976  -77.57781258
     atom  106 type  1   force =    -0.00001663   -0.00012980  -48.78409011
     atom  107 type  1   force =    -0.00237545    0.00193908  -27.26108485
     atom  108 type  1   force =    -0.00118224   -0.00093836  -55.00694945
     atom  109 type  1   force =    -0.00027774   -0.00179338  -23.27770651
     atom  110 type  1   force =    -0.00010140   -0.00058186  -11.28583401
     atom  111 type  1   force =     0.00000474    0.00004020  -72.68794873
     atom  112 type  2   force =     0.21720135    0.11983826 -128.93107971
     atom  113 type  2   force =    -0.21254067    0.12825437 -128.93106353
     atom  114 type  2   force =    -0.00471388   -0.24844814 -128.93090298
     atom  115 type  2   force =    -0.30447845    0.22849429  -24.11923311
     atom  116 type  2   force =     0.04139008   -0.46385230  -24.06042261
     atom  117 type  2   force =     0.31042395    0.20404881  -24.03249992
     atom  118 type  2   force =    -1.25780321   -0.38483948  -77.57889844
     atom  119 type  2   force =     0.96283533   -0.90220565  -77.57998605
     atom  120 type  2   force =     0.29652253    1.28068906  -77.57934427
     atom  121 type  1   force =     0.00168978    0.00229176  -48.78247668
     atom  122 type  1   force =     0.00358080    0.00401212  -27.25125072
     atom  123 type  1   force =     0.00049650   -0.00004365  -55.00819880
     atom  124 type  1   force =    -0.00111333    0.00019883  -23.27913622
     atom  125 type  1   force =     0.06189302    0.00798479  -11.34131466
     atom  126 type  1   force =     0.00067647    0.00048214  -72.68766973
     atom  127 type  2   force =     0.21745400    0.12319839 -128.92830024
     atom  128 type  2   force =    -0.21021027    0.12967723 -128.92850704
     atom  129 type  2   force =    -0.00317537   -0.24675714 -128.93088642
     atom  130 type  2   force =    -0.36196690    0.26887029  -24.03182333
     atom  131 type  2   force =     0.00932026   -0.48704311  -24.17986047
     atom  132 type  2   force =     0.38033288    0.23996142  -24.04383704
     atom  133 type  2   force =    -1.25807897   -0.37784452  -77.57628576
     atom  134 type  2   force =     0.96517276   -0.89606995  -77.57934188
     atom  135 type  2   force =     0.30139703    1.28770001  -77.58070337
     atom  136 type  3   force =    -0.00034664   -0.00696208  104.61748007
     atom  137 type  4   force =    -0.05048044    0.21358987   82.51391948
     atom  138 type  4   force =     0.02924623    0.04376381   13.84141905
     atom  139 type  3   force =     0.03655670    0.35952894  104.05077964
     atom  140 type  4   force =     0.08672572    0.28006850   81.59275313
     atom  141 type  4   force =     0.00223164    0.09076547   13.49173591
     atom  142 type  3   force =     0.47301457    0.18777510  103.13917479
     atom  143 type  4   force =     0.35139326   -0.07402255   81.76425956
     atom  144 type  4   force =     0.05931308   -0.00190930   13.76278142
     atom  145 type  3   force =     0.32581549   -0.07885511  105.08950562
     atom  146 type  4   force =     0.20789423   -0.06121959   82.51633235
     atom  147 type  4   force =     0.03445763   -0.05459977   13.85916371
     atom  148 type  3   force =     0.30503813   -0.22363926  104.09410231
     atom  149 type  4   force =     0.16447756    0.01749367   82.48400752
     atom  150 type  4   force =     0.00892577    0.01228642   13.87818237
     atom  151 type  3   force =    -0.08223884    0.31774087  105.07195568
     atom  152 type  4   force =    -0.11026461    0.33798579   81.75534865
     atom  153 type  4   force =    -0.01969844    0.05649696   13.75006151
     atom  154 type  3   force =    -0.01442594    0.46453346  101.23420565
     atom  155 type  4   force =     0.00092380    0.00320698   80.66692415
     atom  156 type  4   force =     0.00176821    0.01271596   13.45595850
     atom  157 type  3   force =     0.40741535   -0.19828111  101.27270624
     atom  158 type  4   force =     0.19863073   -0.21392674   81.59680786
     atom  159 type  4   force =     0.07826561   -0.05455828   13.52612724
     atom  160 type  3   force =    -0.07987207   -0.50884151  103.19042459
     atom  161 type  4   force =    -0.02210492   -0.09240563   82.20377835
     atom  162 type  4   force =    -0.01466590    0.01876622   13.69467573
     atom  163 type  3   force =     0.04978948   -0.05055510  104.09622453
     atom  164 type  4   force =    -0.06943737    0.06507416   82.20930878
     atom  165 type  4   force =     0.03527361   -0.00177938   13.68232090
     atom  166 type  3   force =    -0.39398815    0.32340331  103.12797189
     atom  167 type  4   force =    -0.28707420   -0.06054334   81.60257674
     atom  168 type  4   force =    -0.08165752   -0.02891371   13.51211320
     atom  169 type  3   force =    -0.38878044   -0.22506463  101.27208454
     atom  170 type  4   force =    -0.24032289   -0.26442121   81.76294757
     atom  171 type  4   force =    -0.03897255   -0.05535896   13.77766579
     atom  172 type  3   force =    -0.24302424   -0.24440353  105.10596881
     atom  173 type  4   force =    -0.09460358    0.13322127   82.48155811
     atom  174 type  4   force =    -0.02450711   -0.01404064   13.88127721
     atom  175 type  3   force =     0.00622613    0.04615267  104.09305352
     atom  176 type  4   force =     0.09169693    0.03075324   82.21434153
     atom  177 type  4   force =    -0.02098508   -0.02323624   13.67986110
     atom  178 type  3   force =    -0.05808589   -0.02073503  104.12821227
     atom  179 type  4   force =    -0.06974502   -0.14567516   82.49440733
     atom  180 type  4   force =     0.01435531   -0.01395128   13.88349138
     atom  181 type  3   force =    -0.34294950   -0.13999626  104.09946154
     atom  182 type  4   force =    -0.15697278   -0.14768789   82.51580559
     atom  183 type  4   force =    -0.06425575   -0.00936578   13.85993378
     atom  184 type  5   force =    -0.01964266   -0.01229604   62.66409992
     atom  185 type  5   force =    -0.05505379   -0.02971636   62.60355401
     atom  186 type  5   force =    -0.06891668   -0.00962272   62.61373394
     atom  187 type  5   force =    -0.02957252    0.05509870   62.50131115
     atom  188 type  5   force =     0.00129743    0.06241705   62.60167859
     atom  189 type  5   force =    -0.00409139    0.01066057   62.66993250
     atom  190 type  5   force =    -0.00690656   -0.00816433   62.67103138
     atom  191 type  5   force =    -0.04401635   -0.01926389   62.84796502
     atom  192 type  5   force =    -0.04412635    0.00409347   62.71415313
     atom  193 type  5   force =    -0.01085833    0.03563033   62.51460617
     atom  194 type  5   force =    -0.00114955    0.02349242   62.66480186
     atom  195 type  5   force =     0.01100956   -0.00104928   62.67091477
     atom  196 type  5   force =     0.02072959   -0.01042537   62.66577032
     atom  197 type  5   force =    -0.00767495   -0.02598323   62.74420334
     atom  198 type  5   force =     0.00288830   -0.00621985   62.60564050
     atom  199 type  5   force =     0.02602840    0.00611668   62.74335328
     atom  200 type  5   force =     0.03892632   -0.02793637   62.84666630
     atom  201 type  5   force =     0.05378873   -0.03226912   62.60303408
     atom  202 type  5   force =     0.03670072   -0.00899466   62.51604447
     atom  203 type  5   force =    -0.00647302    0.00004925   62.60671360
     atom  204 type  5   force =     0.00352762    0.00513984   62.60505420
     atom  205 type  5   force =     0.01814844   -0.04013799   62.71302561
     atom  206 type  5   force =     0.04291494   -0.05446100   62.61228839
     atom  207 type  5   force =     0.06305540   -0.00249284   62.50226312
     atom  208 type  5   force =     0.02624378    0.03554988   62.71402965
     atom  209 type  5   force =    -0.01824327    0.01915862   62.74341103
     atom  210 type  5   force =    -0.02594521   -0.02697612   62.51445472
     atom  211 type  5   force =    -0.03362861   -0.05302063   62.50176641
     atom  212 type  5   force =    -0.00007727    0.00000242   62.43254137
     atom  213 type  5   force =     0.02589786    0.06393048   62.61204717
     atom  214 type  5   force =     0.00525126    0.04768576   62.84517438
     atom  215 type  6   force =    -0.04708704    0.01510029  104.14535448
     atom  216 type  6   force =    -0.02752306    0.10083385  104.32919787
     atom  217 type  6   force =    -0.01063094    0.10553381  104.74896811
     atom  218 type  6   force =    -0.02542267    0.01579041  104.42701022
     atom  219 type  6   force =    -0.08617703   -0.06145597  104.75407309
     atom  220 type  6   force =    -0.07514432   -0.01948232  104.87024552
     atom  221 type  6   force =    -0.03623202    0.06155592  104.28397741
     atom  222 type  6   force =    -0.01012916    0.07268921  104.18917730
     atom  223 type  6   force =     0.02596593    0.01495694  104.42784984
     atom  224 type  6   force =    -0.00051095   -0.02871674  104.42926186
     atom  225 type  6   force =    -0.04732359   -0.01927013  104.93737201
     atom  226 type  6   force =    -0.03189165    0.02431484  104.70804471
     atom  227 type  6   force =    -0.00834847    0.01954251  104.34268449
     atom  228 type  6   force =     0.04057793   -0.03080675  104.93598544
     atom  229 type  6   force =     0.09707282   -0.04257013  104.75261846
     atom  230 type  6   force =     0.06849588   -0.02752121  104.19070016
     atom  231 type  6   force =     0.02176661   -0.00378588  104.34388951
     atom  232 type  6   force =    -0.00026313   -0.00078396  104.24324459
     atom  233 type  6   force =    -0.00598548   -0.04020755  104.70728361
     atom  234 type  6   force =     0.05458970   -0.05437223  104.86706632
     atom  235 type  6   force =     0.10206683   -0.02659431  104.33070831
     atom  236 type  6   force =     0.07249243   -0.00067633  104.28735172
     atom  237 type  6   force =     0.03798033    0.01433596  104.71066953
     atom  238 type  6   force =    -0.01365148   -0.01757257  104.34124714
     atom  239 type  6   force =    -0.03644516   -0.06163550  104.28468801
     atom  240 type  6   force =     0.01018418   -0.04769635  104.14397643
     atom  241 type  6   force =     0.03661719    0.03262510  104.14544476
     atom  242 type  6   force =     0.02083977    0.07417303  104.86454654
     atom  243 type  6   force =     0.00687726    0.05043150  104.93394641
     atom  244 type  6   force =    -0.05834368   -0.04455909  104.18963811
     atom  245 type  6   force =    -0.07446217   -0.07412646  104.33270573
     The local contribution  to forces
     atom    1 type  1   force =     0.00000686    0.00026998   48.75827763
     atom    2 type  1   force =    -0.00878558    0.00463085   27.27582877
     atom    3 type  1   force =    -0.00273596   -0.00151051   54.92277055
     atom    4 type  1   force =    -0.00704462   -0.00418683   23.33994945
     atom    5 type  1   force =    -0.00004825    0.00127503   11.18564565
     atom    6 type  1   force =    -0.00076975    0.00051255   73.10113088
     atom    7 type  2   force =    -0.71978448   -0.18726488  128.85253092
     atom    8 type  2   force =     0.52230703   -0.52916605  128.85275659
     atom    9 type  2   force =     0.19751294    0.71715388  128.85241663
     atom   10 type  2   force =    -0.03065855    0.30160589   24.71633364
     atom   11 type  2   force =    -0.20430530   -0.23653806   24.80947562
     atom   12 type  2   force =     0.23340900   -0.05354696   24.67261380
     atom   13 type  2   force =     1.16385314    0.24859251   77.51345233
     atom   14 type  2   force =    -0.80651402    0.87672891   77.52572561
     atom   15 type  2   force =    -0.36657979   -1.13134245   77.51366187
     atom   16 type  1   force =     0.00075248    0.00460315   48.76588842
     atom   17 type  1   force =     0.00311649    0.00090063   27.29577073
     atom   18 type  1   force =    -0.00072458    0.00098899   54.92451039
     atom   19 type  1   force =    -0.00060370   -0.00055794   23.33969494
     atom   20 type  1   force =     0.03208528    0.06749659   11.28118703
     atom   21 type  1   force =     0.00037134    0.00011257   73.10242345
     atom   22 type  2   force =    -0.72122978   -0.18212152  128.85828115
     atom   23 type  2   force =     0.52430221   -0.52879228  128.86125096
     atom   24 type  2   force =     0.19734576    0.72158592  128.85636188
     atom   25 type  2   force =    -0.02844324    0.21542580   24.75064770
     atom   26 type  2   force =    -0.13380289   -0.24480635   24.69483742
     atom   27 type  2   force =     0.25248983    0.05929793   24.78957776
     atom   28 type  2   force =     1.15608165    0.26920869   77.52255675
     atom   29 type  2   force =    -0.79650734    0.87378050   77.53087321
     atom   30 type  2   force =    -0.35689503   -1.12146857   77.53056221
     atom   31 type  1   force =     0.00345927   -0.00231968   48.76513510
     atom   32 type  1   force =     0.00139981   -0.01001002   27.27520060
     atom   33 type  1   force =    -0.00023122   -0.00127460   54.92447640
     atom   34 type  1   force =     0.00168006   -0.00079057   23.33954686
     atom   35 type  1   force =     0.06207723   -0.00770175   11.27548437
     atom   36 type  1   force =     0.00007674   -0.00092853   73.10104526
     atom   37 type  2   force =    -0.71562430   -0.18803590  128.86162203
     atom   38 type  2   force =     0.52711355   -0.53464464  128.85487681
     atom   39 type  2   force =     0.20125375    0.71777445  128.85775367
     atom   40 type  2   force =    -0.06759959    0.22823977   24.67279377
     atom   41 type  2   force =    -0.24202470   -0.17558669   24.71288534
     atom   42 type  2   force =     0.31001800   -0.06047045   24.80697869
     atom   43 type  2   force =     1.16716974    0.25453272   77.53961358
     atom   44 type  2   force =    -0.81009642    0.86644472   77.52076032
     atom   45 type  2   force =    -0.35477961   -1.13737321   77.52564016
     atom   46 type  1   force =     0.00347255   -0.00261823   48.76517412
     atom   47 type  1   force =     0.00745706    0.00685612   27.27577094
     atom   48 type  1   force =     0.00269752   -0.00162876   54.92280560
     atom   49 type  1   force =     0.00729923   -0.00408953   23.34013954
     atom   50 type  1   force =     0.04161648   -0.05944232   11.27773480
     atom   51 type  1   force =     0.00069674    0.00062112   73.10113052
     atom   52 type  2   force =    -0.71999402   -0.18943173  128.86050173
     atom   53 type  2   force =     0.52593123   -0.53112083  128.85601876
     atom   54 type  2   force =     0.20275120    0.71572489  128.85745945
     atom   55 type  2   force =    -0.10537668    0.30052831   24.80741865
     atom   56 type  2   force =    -0.16591086   -0.17042790   24.67689551
     atom   57 type  2   force =     0.27319677   -0.11991538   24.71350759
     atom   58 type  2   force =     1.16461862    0.24683763   77.54457517
     atom   59 type  2   force =    -0.79721162    0.88487349   77.51452097
     atom   60 type  2   force =    -0.34589572   -1.13450440   77.52087990
     atom   61 type  1   force =    -0.00007359    0.00406715   48.76556448
     atom   62 type  1   force =    -0.00207685    0.00967651   27.29351136
     atom   63 type  1   force =     0.00004503    0.00341998   54.92328005
     atom   64 type  1   force =    -0.00019006    0.00940244   23.34192981
     atom   65 type  1   force =    -0.02601942    0.05734839   11.27769875
     atom   66 type  1   force =    -0.00005395    0.00126374   73.10113269
     atom   67 type  2   force =    -0.72256002   -0.18469007  128.85793765
     atom   68 type  2   force =     0.52026173   -0.52607188  128.86206860
     atom   69 type  2   force =     0.19921640    0.72399447  128.85539305
     atom   70 type  2   force =    -0.04636975    0.16893489   24.90084611
     atom   71 type  2   force =    -0.12047524   -0.15154152   24.74908564
     atom   72 type  2   force =     0.17379801    0.04340270   24.72725212
     atom   73 type  2   force =     1.16135791    0.26181052   77.52643651
     atom   74 type  2   force =    -0.79611049    0.88476221   77.54719855
     atom   75 type  2   force =    -0.35818841   -1.11405225   77.53304845
     atom   76 type  1   force =    -0.00003479   -0.00042358   48.77195067
     atom   77 type  1   force =     0.00963157   -0.00403059   27.29162044
     atom   78 type  1   force =     0.00171829    0.00073277   54.92976879
     atom   79 type  1   force =     0.00609601   -0.00095368   23.34731220
     atom   80 type  1   force =    -0.00025054   -0.00224322   11.41900157
     atom   81 type  1   force =     0.00114733   -0.00070550   73.10089133
     atom   82 type  2   force =    -0.72235158   -0.18710639  128.86344676
     atom   83 type  2   force =     0.52279320   -0.53248681  128.86325547
     atom   84 type  2   force =     0.19946208    0.71849162  128.86376469
     atom   85 type  2   force =    -0.06841494    0.17526786   24.74305826
     atom   86 type  2   force =    -0.05128274   -0.17203178   24.71958875
     atom   87 type  2   force =     0.17086448   -0.04910709   24.89653976
     atom   88 type  2   force =     1.15408520    0.26025143   77.54924840
     atom   89 type  2   force =    -0.78617481    0.86662308   77.53090164
     atom   90 type  2   force =    -0.35073718   -1.13163257   77.54852483
     atom   91 type  1   force =    -0.00339128   -0.00171564   48.76487509
     atom   92 type  1   force =    -0.00039581   -0.00221069   27.29465819
     atom   93 type  1   force =     0.00000560   -0.00199688   54.92925579
     atom   94 type  1   force =    -0.00296175   -0.00523010   23.34522285
     atom   95 type  1   force =    -0.03615479   -0.04894055   11.27452225
     atom   96 type  1   force =    -0.00004978   -0.00025381   73.10225601
     atom   97 type  2   force =    -0.72631422   -0.18898153  128.85483389
     atom   98 type  2   force =     0.52132504   -0.53290522  128.85747786
     atom   99 type  2   force =     0.19531674    0.71358983  128.86122234
     atom  100 type  2   force =    -0.14203331    0.24058928   24.69312578
     atom  101 type  2   force =    -0.07570641   -0.24452225   24.78779083
     atom  102 type  2   force =     0.20233175   -0.08034257   24.74414224
     atom  103 type  2   force =     1.14429899    0.24727563   77.53041164
     atom  104 type  2   force =    -0.79315290    0.87135899   77.52921453
     atom  105 type  2   force =    -0.36216412   -1.13767893   77.53791895
     atom  106 type  1   force =     0.00001420    0.00012212   48.76437423
     atom  107 type  1   force =    -0.00260836    0.00160787   27.29571218
     atom  108 type  1   force =     0.00098597    0.00053730   54.92449192
     atom  109 type  1   force =    -0.00101951    0.00228512   23.33963663
     atom  110 type  1   force =     0.00008436    0.00054415   11.20704180
     atom  111 type  1   force =    -0.00031872    0.00018970   73.10240659
     atom  112 type  2   force =    -0.72214965   -0.18731053  128.85811002
     atom  113 type  2   force =     0.52343464   -0.53181853  128.85809236
     atom  114 type  2   force =     0.19875613    0.71946818  128.85793654
     atom  115 type  2   force =    -0.17669226    0.18806356   24.78941290
     atom  116 type  2   force =    -0.17315019   -0.13697020   24.74871249
     atom  117 type  2   force =     0.27615557    0.00573495   24.69627703
     atom  118 type  2   force =     1.15547227    0.25376855   77.53044904
     atom  119 type  2   force =    -0.80500365    0.88236492   77.54001986
     atom  120 type  2   force =    -0.35883921   -1.12657390   77.53088506
     atom  121 type  1   force =    -0.00421139   -0.00197952   48.76536008
     atom  122 type  1   force =    -0.00772805   -0.00742795   27.29137048
     atom  123 type  1   force =    -0.00176686    0.00067797   54.92971848
     atom  124 type  1   force =    -0.00325236    0.00401949   23.34708868
     atom  125 type  1   force =    -0.07339880   -0.00773069   11.27863127
     atom  126 type  1   force =    -0.00112082   -0.00077254   73.10086635
     atom  127 type  2   force =    -0.72324970   -0.19011760  128.85600471
     atom  128 type  2   force =     0.51846046   -0.53371345  128.85751016
     atom  129 type  2   force =     0.19570385    0.71799183  128.86095896
     atom  130 type  2   force =    -0.12293115    0.12754296   24.71951367
     atom  131 type  2   force =    -0.12498145   -0.12477112   24.89191223
     atom  132 type  2   force =     0.18788941   -0.03424048   24.74520306
     atom  133 type  2   force =     1.15017104    0.25071711   77.52988177
     atom  134 type  2   force =    -0.80364110    0.86805811   77.54745711
     atom  135 type  2   force =    -0.36860874   -1.13338207   77.54553171
     atom  136 type  3   force =     0.00028245    0.00696626 -104.62143005
     atom  137 type  4   force =     0.04992194   -0.21213029  -82.25271876
     atom  138 type  4   force =    -0.02610386   -0.03252610  -14.09944944
     atom  139 type  3   force =    -0.03501274   -0.36033770 -104.05549158
     atom  140 type  4   force =    -0.08520085   -0.27606297  -81.33586287
     atom  141 type  4   force =    -0.00213719   -0.07945946  -13.71395138
     atom  142 type  3   force =    -0.47109445   -0.18838725 -103.14422974
     atom  143 type  4   force =    -0.34705412    0.07293998  -81.50306173
     atom  144 type  4   force =    -0.05551925   -0.00138336  -13.98024074
     atom  145 type  3   force =    -0.32529315    0.08210917 -105.08850430
     atom  146 type  4   force =    -0.20632531    0.06076868  -82.25497875
     atom  147 type  4   force =    -0.02632315    0.04625082  -14.11731638
     atom  148 type  3   force =    -0.30634740    0.22266619 -104.09860898
     atom  149 type  4   force =    -0.16269135   -0.01680216  -82.21633668
     atom  150 type  4   force =    -0.00696989   -0.00626031  -14.13637663
     atom  151 type  3   force =     0.07932929   -0.31882080 -105.07105569
     atom  152 type  4   force =     0.10898757   -0.33365141  -81.49415400
     atom  153 type  4   force =     0.02079960   -0.05147166  -13.96743907
     atom  154 type  3   force =     0.01447474   -0.46404827 -101.23794306
     atom  155 type  4   force =    -0.00092201   -0.00330115  -80.41483682
     atom  156 type  4   force =    -0.00174655   -0.01263274  -13.63878004
     atom  157 type  3   force =    -0.40702967    0.19809117 -101.27630717
     atom  158 type  4   force =    -0.19591778    0.21047347  -81.33987266
     atom  159 type  4   force =    -0.06862567    0.04897837  -13.74845462
     atom  160 type  3   force =     0.07849501    0.50753947 -103.19526944
     atom  161 type  4   force =     0.02266860    0.09119994  -81.93508594
     atom  162 type  4   force =     0.01537838   -0.02043663  -13.95376518
     atom  163 type  3   force =    -0.04900169    0.04940557 -104.10790209
     atom  164 type  4   force =     0.06808308   -0.06494364  -81.94070443
     atom  165 type  4   force =    -0.03705972    0.00215004  -13.94135990
     atom  166 type  3   force =     0.39350914   -0.32153064 -103.13310695
     atom  167 type  4   force =     0.28283695    0.05975599  -81.34562302
     atom  168 type  4   force =     0.07194491    0.02350749  -13.73438361
     atom  169 type  3   force =     0.38832327    0.22492114 -101.27566428
     atom  170 type  4   force =     0.23726957    0.26102616  -81.50184878
     atom  171 type  4   force =     0.03410738    0.05393156  -13.99510557
     atom  172 type  3   force =     0.24537038    0.24251829 -105.10485500
     atom  173 type  4   force =     0.09305819   -0.13208715  -82.21378993
     atom  174 type  4   force =     0.01833315    0.01265456  -14.13954636
     atom  175 type  3   force =    -0.00570344   -0.04505179 -104.10474423
     atom  176 type  4   force =    -0.09091880   -0.02971981  -81.94583391
     atom  177 type  4   force =     0.02207480    0.02478834  -13.93882289
     atom  178 type  3   force =     0.05671782    0.02049731 -104.13959284
     atom  179 type  4   force =     0.06952812    0.14374433  -82.22673131
     atom  180 type  4   force =    -0.01016992    0.00947003  -14.14180249
     atom  181 type  3   force =     0.34283635    0.14176362 -104.10393655
     atom  182 type  4   force =     0.15590706    0.14635537  -82.25450587
     atom  183 type  4   force =     0.05296492    0.00654164  -14.11812528
     atom  184 type  5   force =     0.02002069    0.01322107  -62.66037776
     atom  185 type  5   force =     0.05572718    0.02891201  -62.60023557
     atom  186 type  5   force =     0.06955387    0.00975689  -62.61124609
     atom  187 type  5   force =     0.02961721   -0.05482161  -62.49704093
     atom  188 type  5   force =    -0.00231590   -0.06259665  -62.59835183
     atom  189 type  5   force =     0.00368039   -0.01054613  -62.66488202
     atom  190 type  5   force =     0.00700877    0.00774300  -62.66598407
     atom  191 type  5   force =     0.04453349    0.01899054  -62.84831471
     atom  192 type  5   force =     0.04508179   -0.00360084  -62.71294810
     atom  193 type  5   force =     0.01162273   -0.03568771  -62.50953531
     atom  194 type  5   force =     0.00176676   -0.02428060  -62.66109417
     atom  195 type  5   force =    -0.01069972    0.00134977  -62.66586864
     atom  196 type  5   force =    -0.02171923    0.01028841  -62.66205516
     atom  197 type  5   force =     0.00679174    0.02603151  -62.74250398
     atom  198 type  5   force =    -0.00289372    0.00653479  -62.60060532
     atom  199 type  5   force =    -0.02563495   -0.00690656  -62.74166800
     atom  200 type  5   force =    -0.03895337    0.02852788  -62.84700679
     atom  201 type  5   force =    -0.05342865    0.03324347  -62.59970058
     atom  202 type  5   force =    -0.03712078    0.00835227  -62.51097522
     atom  203 type  5   force =     0.00674776   -0.00019720  -62.60169375
     atom  204 type  5   force =    -0.00380629   -0.00529158  -62.60000808
     atom  205 type  5   force =    -0.01905922    0.04072685  -62.71181626
     atom  206 type  5   force =    -0.04335601    0.05494005  -62.60977480
     atom  207 type  5   force =    -0.06283761    0.00230501  -62.49800676
     atom  208 type  5   force =    -0.02629298   -0.03661519  -62.71283428
     atom  209 type  5   force =     0.01873401   -0.01840660  -62.74172507
     atom  210 type  5   force =     0.02561268    0.02766713  -62.50937964
     atom  211 type  5   force =     0.03336259    0.05291321  -62.49749708
     atom  212 type  5   force =     0.00007339   -0.00000827  -62.42707981
     atom  213 type  5   force =    -0.02610057   -0.06455080  -62.60954860
     atom  214 type  5   force =    -0.00574795   -0.04799411  -62.84549881
     atom  215 type  6   force =     0.04717379   -0.01473612 -104.14212205
     atom  216 type  6   force =     0.02774000   -0.10076640 -104.32354413
     atom  217 type  6   force =     0.01006627   -0.10689003 -104.73460114
     atom  218 type  6   force =     0.02595121   -0.01657464 -104.42406448
     atom  219 type  6   force =     0.08763844    0.06164519 -104.73961662
     atom  220 type  6   force =     0.07539476    0.01973822 -104.85137422
     atom  221 type  6   force =     0.03644676   -0.06132506 -104.28187890
     atom  222 type  6   force =     0.00976767   -0.07344093 -104.19337972
     atom  223 type  6   force =    -0.02689619   -0.01502216 -104.42486815
     atom  224 type  6   force =     0.00092302    0.02957179 -104.42628090
     atom  225 type  6   force =     0.04800398    0.01884286 -104.91849738
     atom  226 type  6   force =     0.03237622   -0.02537556 -104.69385545
     atom  227 type  6   force =     0.00958401   -0.02020436 -104.34107058
     atom  228 type  6   force =    -0.04056058    0.03161531 -104.91708887
     atom  229 type  6   force =    -0.09796381    0.04374905 -104.73817605
     atom  230 type  6   force =    -0.06895608    0.02820852 -104.19494479
     atom  231 type  6   force =    -0.02295462    0.00303283 -104.34230431
     atom  232 type  6   force =     0.00025716    0.00077635 -104.24302281
     atom  233 type  6   force =     0.00663885    0.04116739 -104.69306776
     atom  234 type  6   force =    -0.05495125    0.05446317 -104.84824987
     atom  235 type  6   force =    -0.10211018    0.02638208 -104.32504069
     atom  236 type  6   force =    -0.07238606    0.00037592 -104.28513810
     atom  237 type  6   force =    -0.03913068   -0.01423925 -104.69634798
     atom  238 type  6   force =     0.01358996    0.01898468 -104.33968976
     atom  239 type  6   force =     0.03612076    0.06170716 -104.28251783
     atom  240 type  6   force =    -0.01054355    0.04759546 -104.14076643
     atom  241 type  6   force =    -0.03634463   -0.03286780 -104.14217753
     atom  242 type  6   force =    -0.02073160   -0.07451956 -104.84584865
     atom  243 type  6   force =    -0.00758325   -0.05081506 -104.91510355
     atom  244 type  6   force =     0.05917470    0.04461255 -104.19385056
     atom  245 type  6   force =     0.07429909    0.07427983 -104.32697675
     The core correction contribution to forces
     atom    1 type  1   force =    -0.00000021   -0.00000009    0.00833428
     atom    2 type  1   force =     0.00000271   -0.00005563    0.00759240
     atom    3 type  1   force =    -0.00003548   -0.00001039   -0.00911690
     atom    4 type  1   force =    -0.00019310   -0.00015731    0.00947379
     atom    5 type  1   force =     0.00000063   -0.00000096   -0.01272881
     atom    6 type  1   force =    -0.00001242   -0.00001677    0.02799081
     atom    7 type  2   force =    -0.00616162   -0.00111724    0.00106939
     atom    8 type  2   force =     0.00404832   -0.00477768    0.00106940
     atom    9 type  2   force =     0.00211329    0.00589468    0.00106949
     atom   10 type  2   force =    -0.00423664    0.00390276    0.00589574
     atom   11 type  2   force =    -0.00112258   -0.00560771    0.00596151
     atom   12 type  2   force =     0.00535579    0.00171898    0.00582902
     atom   13 type  2   force =    -0.00083828   -0.00116429   -0.00041156
     atom   14 type  2   force =     0.00142049   -0.00020880   -0.00040886
     atom   15 type  2   force =    -0.00058952    0.00130785   -0.00041145
     atom   16 type  1   force =     0.00007067    0.00010162    0.00836360
     atom   17 type  1   force =     0.00025465    0.00008113    0.00765900
     atom   18 type  1   force =     0.00002099    0.00000571   -0.00915164
     atom   19 type  1   force =    -0.00001930   -0.00006073    0.00937387
     atom   20 type  1   force =     0.00007604    0.00017053   -0.01213762
     atom   21 type  1   force =     0.00002577   -0.00000042    0.02797260
     atom   22 type  2   force =    -0.00615056   -0.00108743    0.00108268
     atom   23 type  2   force =     0.00406418   -0.00476023    0.00109994
     atom   24 type  2   force =     0.00212096    0.00590239    0.00106378
     atom   25 type  2   force =    -0.00396042    0.00378405    0.00614557
     atom   26 type  2   force =    -0.00099549   -0.00554028    0.00576298
     atom   27 type  2   force =     0.00550209    0.00191226    0.00590683
     atom   28 type  2   force =    -0.00083725   -0.00107329   -0.00038811
     atom   29 type  2   force =     0.00143976   -0.00015220   -0.00043554
     atom   30 type  2   force =    -0.00049826    0.00136675   -0.00040612
     atom   31 type  1   force =     0.00006320   -0.00000443    0.00836340
     atom   32 type  1   force =     0.00004586    0.00003104    0.00759249
     atom   33 type  1   force =    -0.00001579    0.00001517   -0.00915200
     atom   34 type  1   force =     0.00006050    0.00001341    0.00937347
     atom   35 type  1   force =     0.00024637    0.00004730   -0.01220787
     atom   36 type  1   force =     0.00002067   -0.00000215    0.02799089
     atom   37 type  2   force =    -0.00610379   -0.00110568    0.00111477
     atom   38 type  2   force =     0.00407780   -0.00478689    0.00107001
     atom   39 type  2   force =     0.00214239    0.00590922    0.00106215
     atom   40 type  2   force =    -0.00416715    0.00377953    0.00582816
     atom   41 type  2   force =    -0.00126258   -0.00562071    0.00589652
     atom   42 type  2   force =     0.00541705    0.00183216    0.00596098
     atom   43 type  2   force =    -0.00075986   -0.00111501   -0.00030969
     atom   44 type  2   force =     0.00134773   -0.00018823   -0.00038754
     atom   45 type  2   force =    -0.00052984    0.00133476   -0.00040938
     atom   46 type  1   force =     0.00005277   -0.00011231    0.00836400
     atom   47 type  1   force =    -0.00004941    0.00002431    0.00759240
     atom   48 type  1   force =     0.00002646   -0.00002552   -0.00911708
     atom   49 type  1   force =     0.00023333   -0.00008836    0.00947371
     atom   50 type  1   force =     0.00011058   -0.00015214   -0.01214216
     atom   51 type  1   force =    -0.00000836    0.00001914    0.02799084
     atom   52 type  2   force =    -0.00615438   -0.00113965    0.00110026
     atom   53 type  2   force =     0.00405123   -0.00478825    0.00106384
     atom   54 type  2   force =     0.00213363    0.00587013    0.00108283
     atom   55 type  2   force =    -0.00429415    0.00377500    0.00596065
     atom   56 type  2   force =    -0.00118867   -0.00549815    0.00582856
     atom   57 type  2   force =     0.00549912    0.00171694    0.00589605
     atom   58 type  2   force =    -0.00081652   -0.00124423   -0.00023185
     atom   59 type  2   force =     0.00142764   -0.00014398   -0.00041171
     atom   60 type  2   force =    -0.00051070    0.00126133   -0.00038760
     atom   61 type  1   force =    -0.00002749    0.00005691    0.00836333
     atom   62 type  1   force =     0.00000623    0.00020650    0.00783827
     atom   63 type  1   force =     0.00000877    0.00003545   -0.00911734
     atom   64 type  1   force =    -0.00003959    0.00024566    0.00947339
     atom   65 type  1   force =    -0.00016399    0.00018989   -0.01220488
     atom   66 type  1   force =    -0.00000807    0.00002974    0.02788149
     atom   67 type  2   force =    -0.00618875   -0.00109930    0.00106219
     atom   68 type  2   force =     0.00400953   -0.00473316    0.00111483
     atom   69 type  2   force =     0.00210671    0.00592492    0.00106989
     atom   70 type  2   force =    -0.00420934    0.00363143    0.00660246
     atom   71 type  2   force =    -0.00090461   -0.00524252    0.00634205
     atom   72 type  2   force =     0.00524314    0.00208909    0.00613267
     atom   73 type  2   force =    -0.00089073   -0.00112618   -0.00040939
     atom   74 type  2   force =     0.00148601   -0.00008509   -0.00023283
     atom   75 type  2   force =    -0.00058069    0.00140691   -0.00030695
     atom   76 type  1   force =     0.00000026    0.00000036    0.00846028
     atom   77 type  1   force =     0.00017657   -0.00010740    0.00783896
     atom   78 type  1   force =     0.00004591    0.00003109   -0.00901616
     atom   79 type  1   force =     0.00022244    0.00009015    0.00958404
     atom   80 type  1   force =    -0.00000006    0.00000106   -0.01059067
     atom   81 type  1   force =     0.00002964   -0.00000775    0.02788114
     atom   82 type  2   force =    -0.00616017   -0.00110630    0.00112521
     atom   83 type  2   force =     0.00403827   -0.00478140    0.00112533
     atom   84 type  2   force =     0.00212195    0.00588817    0.00112514
     atom   85 type  2   force =    -0.00408834    0.00340614    0.00634371
     atom   86 type  2   force =    -0.00081266   -0.00558611    0.00613246
     atom   87 type  2   force =     0.00525119    0.00183060    0.00660061
     atom   88 type  2   force =    -0.00089363   -0.00110619   -0.00018679
     atom   89 type  2   force =     0.00150899   -0.00020033   -0.00030659
     atom   90 type  2   force =    -0.00051111    0.00132776   -0.00018676
     atom   91 type  1   force =    -0.00003586   -0.00005245    0.00836381
     atom   92 type  1   force =    -0.00005663   -0.00026135    0.00766000
     atom   93 type  1   force =     0.00000392   -0.00005525   -0.00901539
     atom   94 type  1   force =    -0.00003317   -0.00023778    0.00958492
     atom   95 type  1   force =    -0.00008289   -0.00023731   -0.01220809
     atom   96 type  1   force =    -0.00001339   -0.00002221    0.02797211
     atom   97 type  2   force =    -0.00618454   -0.00113799    0.00107017
     atom   98 type  2   force =     0.00404623   -0.00480998    0.00106239
     atom   99 type  2   force =     0.00209422    0.00583880    0.00111508
     atom  100 type  2   force =    -0.00430090    0.00363122    0.00576497
     atom  101 type  2   force =    -0.00109404   -0.00572264    0.00590847
     atom  102 type  2   force =     0.00525872    0.00153793    0.00614593
     atom  103 type  2   force =    -0.00092838   -0.00120630   -0.00030621
     atom  104 type  2   force =     0.00143338   -0.00025229   -0.00040566
     atom  105 type  2   force =    -0.00058570    0.00121548   -0.00030865
     atom  106 type  1   force =    -0.00000004   -0.00000034    0.00829527
     atom  107 type  1   force =    -0.00019753    0.00017932    0.00765887
     atom  108 type  1   force =    -0.00000521   -0.00002149   -0.00915173
     atom  109 type  1   force =    -0.00004117    0.00004612    0.00937388
     atom  110 type  1   force =    -0.00000099   -0.00000107   -0.01258234
     atom  111 type  1   force =    -0.00001268    0.00002275    0.02797258
     atom  112 type  2   force =    -0.00616107   -0.00111779    0.00105379
     atom  113 type  2   force =     0.00404839   -0.00477679    0.00105378
     atom  114 type  2   force =     0.00211253    0.00589433    0.00105382
     atom  115 type  2   force =    -0.00440801    0.00380848    0.00590738
     atom  116 type  2   force =    -0.00129721   -0.00532246    0.00614404
     atom  117 type  2   force =     0.00529564    0.00190796    0.00576378
     atom  118 type  2   force =    -0.00085173   -0.00117135   -0.00043494
     atom  119 type  2   force =     0.00134570   -0.00010056   -0.00030977
     atom  120 type  2   force =    -0.00058812    0.00132264   -0.00043512
     atom  121 type  1   force =    -0.00012346    0.00001071    0.00836380
     atom  122 type  1   force =    -0.00018185   -0.00009732    0.00783923
     atom  123 type  1   force =    -0.00004983    0.00002424   -0.00901603
     atom  124 type  1   force =    -0.00019006    0.00014841    0.00958422
     atom  125 type  1   force =    -0.00018639   -0.00001825   -0.01214125
     atom  126 type  1   force =    -0.00002173   -0.00002154    0.02788100
     atom  127 type  2   force =    -0.00617233   -0.00111429    0.00106372
     atom  128 type  2   force =     0.00401685   -0.00478262    0.00108281
     atom  129 type  2   force =     0.00209036    0.00589983    0.00110008
     atom  130 type  2   force =    -0.00443176    0.00349800    0.00613257
     atom  131 type  2   force =    -0.00104117   -0.00546227    0.00660043
     atom  132 type  2   force =     0.00499326    0.00183915    0.00634297
     atom  133 type  2   force =    -0.00093473   -0.00111487   -0.00040611
     atom  134 type  2   force =     0.00140507   -0.00022051   -0.00018616
     atom  135 type  2   force =    -0.00066936    0.00132993   -0.00023238
     atom  136 type  3   force =    -0.00000446   -0.00000405   -0.00054021
     atom  137 type  4   force =    -0.00003769    0.00012087    0.03117669
     atom  138 type  4   force =     0.00039105    0.00127532   -0.03039366
     atom  139 type  3   force =     0.00008874    0.00026020   -0.00049285
     atom  140 type  4   force =     0.00017339    0.00034734    0.03072418
     atom  141 type  4   force =    -0.00005719    0.00123829   -0.02607149
     atom  142 type  3   force =     0.00052577    0.00014657   -0.00063468
     atom  143 type  4   force =     0.00040044   -0.00005473    0.03136847
     atom  144 type  4   force =     0.00023208   -0.00040197   -0.02534106
     atom  145 type  3   force =     0.00035394    0.00010867   -0.00018506
     atom  146 type  4   force =     0.00016104   -0.00008982    0.03120079
     atom  147 type  4   force =     0.00086864   -0.00096709   -0.03038141
     atom  148 type  3   force =     0.00020076   -0.00021596   -0.00048057
     atom  149 type  4   force =     0.00007263   -0.00005434    0.03203383
     atom  150 type  4   force =     0.00021305    0.00082034   -0.03033164
     atom  151 type  3   force =    -0.00025314    0.00025946   -0.00018496
     atom  152 type  4   force =    -0.00015943    0.00040476    0.03134545
     atom  153 type  4   force =     0.00025374    0.00041998   -0.02534190
     atom  154 type  3   force =     0.00004913    0.00039414   -0.00092615
     atom  155 type  4   force =    -0.00000999   -0.00003452    0.03023560
     atom  156 type  4   force =    -0.00000433   -0.00001573   -0.02138381
     atom  157 type  3   force =     0.00031245   -0.00022058   -0.00091938
     atom  158 type  4   force =     0.00023612   -0.00035108    0.03074354
     atom  159 type  4   force =     0.00107174   -0.00049176   -0.02604461
     atom  160 type  3   force =    -0.00012901   -0.00052404   -0.00061773
     atom  161 type  4   force =     0.00004951   -0.00020576    0.03206862
     atom  162 type  4   force =     0.00012647   -0.00011893   -0.03043716
     atom  163 type  3   force =     0.00016441   -0.00011600   -0.00097032
     atom  164 type  4   force =    -0.00021650    0.00004575    0.03206982
     atom  165 type  4   force =    -0.00019609    0.00000926   -0.03044184
     atom  166 type  3   force =    -0.00039257    0.00037565   -0.00064554
     atom  167 type  4   force =    -0.00038343   -0.00008335    0.03076398
     atom  168 type  4   force =    -0.00100061   -0.00068229   -0.02604463
     atom  169 type  3   force =    -0.00036383   -0.00014226   -0.00091932
     atom  170 type  4   force =    -0.00024570   -0.00036349    0.03135866
     atom  171 type  4   force =    -0.00048377    0.00009972   -0.02533248
     atom  172 type  3   force =    -0.00010501   -0.00034627   -0.00017183
     atom  173 type  4   force =    -0.00002637    0.00006297    0.03204328
     atom  174 type  4   force =    -0.00078764   -0.00021220   -0.03032685
     atom  175 type  3   force =     0.00000665    0.00018160   -0.00097406
     atom  176 type  4   force =     0.00015227    0.00009069    0.03206784
     atom  177 type  4   force =     0.00007235    0.00018643   -0.03043530
     atom  178 type  3   force =    -0.00017801   -0.00009964   -0.00094705
     atom  179 type  4   force =    -0.00003739   -0.00006971    0.03205021
     atom  180 type  4   force =     0.00057134   -0.00051845   -0.03034155
     atom  181 type  3   force =    -0.00027592   -0.00005136   -0.00047823
     atom  182 type  4   force =    -0.00014049   -0.00013791    0.03118783
     atom  183 type  4   force =    -0.00125660   -0.00022758   -0.03039855
     atom  184 type  5   force =    -0.00001787   -0.00003230    0.00007846
     atom  185 type  5   force =     0.00005900   -0.00015398    0.00005672
     atom  186 type  5   force =     0.00003651   -0.00002482    0.00002370
     atom  187 type  5   force =    -0.00002218    0.00007351    0.00012433
     atom  188 type  5   force =    -0.00016501    0.00002238    0.00005740
     atom  189 type  5   force =    -0.00010709   -0.00001908    0.00016970
     atom  190 type  5   force =     0.00006257   -0.00008631    0.00016940
     atom  191 type  5   force =     0.00010716   -0.00007982   -0.00015995
     atom  192 type  5   force =     0.00007555    0.00003495   -0.00006276
     atom  193 type  5   force =     0.00002360    0.00006206    0.00013732
     atom  194 type  5   force =    -0.00001927    0.00002822    0.00007775
     atom  195 type  5   force =     0.00003831    0.00009543    0.00016943
     atom  196 type  5   force =     0.00003385   -0.00000086    0.00007782
     atom  197 type  5   force =    -0.00001115   -0.00003958   -0.00002038
     atom  198 type  5   force =     0.00003388    0.00002180    0.00017426
     atom  199 type  5   force =     0.00003993    0.00001293   -0.00002103
     atom  200 type  5   force =     0.00001499    0.00013607   -0.00015934
     atom  201 type  5   force =     0.00010505    0.00012863    0.00005753
     atom  202 type  5   force =     0.00004324   -0.00005396    0.00013698
     atom  203 type  5   force =     0.00000221   -0.00003924    0.00017343
     atom  204 type  5   force =    -0.00003331    0.00002170    0.00017472
     atom  205 type  5   force =    -0.00006649    0.00005431   -0.00006247
     atom  206 type  5   force =     0.00000688    0.00004891    0.00002504
     atom  207 type  5   force =     0.00007636   -0.00001864    0.00012382
     atom  208 type  5   force =    -0.00000763   -0.00008525   -0.00006316
     atom  209 type  5   force =    -0.00002744    0.00002851   -0.00002085
     atom  210 type  5   force =    -0.00006528   -0.00000715    0.00013742
     atom  211 type  5   force =    -0.00005176   -0.00005117    0.00012433
     atom  212 type  5   force =     0.00000124    0.00000184    0.00020250
     atom  213 type  5   force =    -0.00004166   -0.00002045    0.00002425
     atom  214 type  5   force =    -0.00012449   -0.00005846   -0.00015837
     atom  215 type  6   force =     0.00000701    0.00000038    0.00006836
     atom  216 type  6   force =    -0.00000391    0.00000440    0.00008392
     atom  217 type  6   force =    -0.00001441    0.00000612    0.00016237
     atom  218 type  6   force =    -0.00000467    0.00000277    0.00005199
     atom  219 type  6   force =     0.00000219   -0.00001554    0.00016307
     atom  220 type  6   force =     0.00000537   -0.00000434    0.00019760
     atom  221 type  6   force =     0.00000889    0.00001541    0.00004023
     atom  222 type  6   force =     0.00000201   -0.00000233   -0.00002589
     atom  223 type  6   force =     0.00000472    0.00000279    0.00005239
     atom  224 type  6   force =    -0.00000005   -0.00000547    0.00005218
     atom  225 type  6   force =    -0.00000908   -0.00001643    0.00019964
     atom  226 type  6   force =     0.00000531    0.00000070    0.00015901
     atom  227 type  6   force =     0.00001885   -0.00000801    0.00003475
     atom  228 type  6   force =     0.00001850    0.00000045    0.00019995
     atom  229 type  6   force =     0.00001207    0.00000942    0.00016318
     atom  230 type  6   force =    -0.00000326   -0.00000098   -0.00002646
     atom  231 type  6   force =    -0.00001645   -0.00001224    0.00003426
     atom  232 type  6   force =     0.00000009    0.00000020    0.00002462
     atom  233 type  6   force =    -0.00000319    0.00000459    0.00015917
     atom  234 type  6   force =     0.00000072    0.00000643    0.00019690
     atom  235 type  6   force =     0.00000555    0.00000069    0.00008394
     atom  236 type  6   force =     0.00000884   -0.00001551    0.00004148
     atom  237 type  6   force =    -0.00000193   -0.00000456    0.00016065
     atom  238 type  6   force =    -0.00000232    0.00002083    0.00003405
     atom  239 type  6   force =    -0.00001781   -0.00000006    0.00004115
     atom  240 type  6   force =    -0.00000409    0.00000541    0.00006819
     atom  241 type  6   force =    -0.00000320   -0.00000658    0.00006885
     atom  242 type  6   force =    -0.00000618   -0.00000230    0.00019541
     atom  243 type  6   force =    -0.00000942    0.00001639    0.00019951
     atom  244 type  6   force =     0.00000130    0.00000308   -0.00002588
     atom  245 type  6   force =    -0.00000167   -0.00000572    0.00008470
     The Hubbard contrib.    to forces
     atom    1 type  1   force =     0.00000000    0.00000000    0.00000000
     atom    2 type  1   force =     0.00000000    0.00000000    0.00000000
     atom    3 type  1   force =     0.00000000    0.00000000    0.00000000
     atom    4 type  1   force =     0.00000000    0.00000000    0.00000000
     atom    5 type  1   force =     0.00000000    0.00000000    0.00000000
     atom    6 type  1   force =     0.00000000    0.00000000    0.00000000
     atom    7 type  2   force =     0.00000000    0.00000000    0.00000000
     atom    8 type  2   force =     0.00000000    0.00000000    0.00000000
     atom    9 type  2   force =     0.00000000    0.00000000    0.00000000
     atom   10 type  2   force =     0.00000000    0.00000000    0.00000000
     atom   11 type  2   force =     0.00000000    0.00000000    0.00000000
     atom   12 type  2   force =     0.00000000    0.00000000    0.00000000
     atom   13 type  2   force =     0.00000000    0.00000000    0.00000000
     atom   14 type  2   force =     0.00000000    0.00000000    0.00000000
     atom   15 type  2   force =     0.00000000    0.00000000    0.00000000
     atom   16 type  1   force =     0.00000000    0.00000000    0.00000000
     atom   17 type  1   force =     0.00000000    0.00000000    0.00000000
     atom   18 type  1   force =     0.00000000    0.00000000    0.00000000
     atom   19 type  1   force =     0.00000000    0.00000000    0.00000000
     atom   20 type  1   force =     0.00000000    0.00000000    0.00000000
     atom   21 type  1   force =     0.00000000    0.00000000    0.00000000
     atom   22 type  2   force =     0.00000000    0.00000000    0.00000000
     atom   23 type  2   force =     0.00000000    0.00000000    0.00000000
     atom   24 type  2   force =     0.00000000    0.00000000    0.00000000
     atom   25 type  2   force =     0.00000000    0.00000000    0.00000000
     atom   26 type  2   force =     0.00000000    0.00000000    0.00000000
     atom   27 type  2   force =     0.00000000    0.00000000    0.00000000
     atom   28 type  2   force =     0.00000000    0.00000000    0.00000000
     atom   29 type  2   force =     0.00000000    0.00000000    0.00000000
     atom   30 type  2   force =     0.00000000    0.00000000    0.00000000
     atom   31 type  1   force =     0.00000000    0.00000000    0.00000000
     atom   32 type  1   force =     0.00000000    0.00000000    0.00000000
     atom   33 type  1   force =     0.00000000    0.00000000    0.00000000
     atom   34 type  1   force =     0.00000000    0.00000000    0.00000000
     atom   35 type  1   force =     0.00000000    0.00000000    0.00000000
     atom   36 type  1   force =     0.00000000    0.00000000    0.00000000
     atom   37 type  2   force =     0.00000000    0.00000000    0.00000000
     atom   38 type  2   force =     0.00000000    0.00000000    0.00000000
     atom   39 type  2   force =     0.00000000    0.00000000    0.00000000
     atom   40 type  2   force =     0.00000000    0.00000000    0.00000000
     atom   41 type  2   force =     0.00000000    0.00000000    0.00000000
     atom   42 type  2   force =     0.00000000    0.00000000    0.00000000
     atom   43 type  2   force =     0.00000000    0.00000000    0.00000000
     atom   44 type  2   force =     0.00000000    0.00000000    0.00000000
     atom   45 type  2   force =     0.00000000    0.00000000    0.00000000
     atom   46 type  1   force =     0.00000000    0.00000000    0.00000000
     atom   47 type  1   force =     0.00000000    0.00000000    0.00000000
     atom   48 type  1   force =     0.00000000    0.00000000    0.00000000
     atom   49 type  1   force =     0.00000000    0.00000000    0.00000000
     atom   50 type  1   force =     0.00000000    0.00000000    0.00000000
     atom   51 type  1   force =     0.00000000    0.00000000    0.00000000
     atom   52 type  2   force =     0.00000000    0.00000000    0.00000000
     atom   53 type  2   force =     0.00000000    0.00000000    0.00000000
     atom   54 type  2   force =     0.00000000    0.00000000    0.00000000
     atom   55 type  2   force =     0.00000000    0.00000000    0.00000000
     atom   56 type  2   force =     0.00000000    0.00000000    0.00000000
     atom   57 type  2   force =     0.00000000    0.00000000    0.00000000
     atom   58 type  2   force =     0.00000000    0.00000000    0.00000000
     atom   59 type  2   force =     0.00000000    0.00000000    0.00000000
     atom   60 type  2   force =     0.00000000    0.00000000    0.00000000
     atom   61 type  1   force =     0.00000000    0.00000000    0.00000000
     atom   62 type  1   force =     0.00000000    0.00000000    0.00000000
     atom   63 type  1   force =     0.00000000    0.00000000    0.00000000
     atom   64 type  1   force =     0.00000000    0.00000000    0.00000000
     atom   65 type  1   force =     0.00000000    0.00000000    0.00000000
     atom   66 type  1   force =     0.00000000    0.00000000    0.00000000
     atom   67 type  2   force =     0.00000000    0.00000000    0.00000000
     atom   68 type  2   force =     0.00000000    0.00000000    0.00000000
     atom   69 type  2   force =     0.00000000    0.00000000    0.00000000
     atom   70 type  2   force =     0.00000000    0.00000000    0.00000000
     atom   71 type  2   force =     0.00000000    0.00000000    0.00000000
     atom   72 type  2   force =     0.00000000    0.00000000    0.00000000
     atom   73 type  2   force =     0.00000000    0.00000000    0.00000000
     atom   74 type  2   force =     0.00000000    0.00000000    0.00000000
     atom   75 type  2   force =     0.00000000    0.00000000    0.00000000
     atom   76 type  1   force =     0.00000000    0.00000000    0.00000000
     atom   77 type  1   force =     0.00000000    0.00000000    0.00000000
     atom   78 type  1   force =     0.00000000    0.00000000    0.00000000
     atom   79 type  1   force =     0.00000000    0.00000000    0.00000000
     atom   80 type  1   force =     0.00000000    0.00000000    0.00000000
     atom   81 type  1   force =     0.00000000    0.00000000    0.00000000
     atom   82 type  2   force =     0.00000000    0.00000000    0.00000000
     atom   83 type  2   force =     0.00000000    0.00000000    0.00000000
     atom   84 type  2   force =     0.00000000    0.00000000    0.00000000
     atom   85 type  2   force =     0.00000000    0.00000000    0.00000000
     atom   86 type  2   force =     0.00000000    0.00000000    0.00000000
     atom   87 type  2   force =     0.00000000    0.00000000    0.00000000
     atom   88 type  2   force =     0.00000000    0.00000000    0.00000000
     atom   89 type  2   force =     0.00000000    0.00000000    0.00000000
     atom   90 type  2   force =     0.00000000    0.00000000    0.00000000
     atom   91 type  1   force =     0.00000000    0.00000000    0.00000000
     atom   92 type  1   force =     0.00000000    0.00000000    0.00000000
     atom   93 type  1   force =     0.00000000    0.00000000    0.00000000
     atom   94 type  1   force =     0.00000000    0.00000000    0.00000000
     atom   95 type  1   force =     0.00000000    0.00000000    0.00000000
     atom   96 type  1   force =     0.00000000    0.00000000    0.00000000
     atom   97 type  2   force =     0.00000000    0.00000000    0.00000000
     atom   98 type  2   force =     0.00000000    0.00000000    0.00000000
     atom   99 type  2   force =     0.00000000    0.00000000    0.00000000
     atom  100 type  2   force =     0.00000000    0.00000000    0.00000000
     atom  101 type  2   force =     0.00000000    0.00000000    0.00000000
     atom  102 type  2   force =     0.00000000    0.00000000    0.00000000
     atom  103 type  2   force =     0.00000000    0.00000000    0.00000000
     atom  104 type  2   force =     0.00000000    0.00000000    0.00000000
     atom  105 type  2   force =     0.00000000    0.00000000    0.00000000
     atom  106 type  1   force =     0.00000000    0.00000000    0.00000000
     atom  107 type  1   force =     0.00000000    0.00000000    0.00000000
     atom  108 type  1   force =     0.00000000    0.00000000    0.00000000
     atom  109 type  1   force =     0.00000000    0.00000000    0.00000000
     atom  110 type  1   force =     0.00000000    0.00000000    0.00000000
     atom  111 type  1   force =     0.00000000    0.00000000    0.00000000
     atom  112 type  2   force =     0.00000000    0.00000000    0.00000000
     atom  113 type  2   force =     0.00000000    0.00000000    0.00000000
     atom  114 type  2   force =     0.00000000    0.00000000    0.00000000
     atom  115 type  2   force =     0.00000000    0.00000000    0.00000000
     atom  116 type  2   force =     0.00000000    0.00000000    0.00000000
     atom  117 type  2   force =     0.00000000    0.00000000    0.00000000
     atom  118 type  2   force =     0.00000000    0.00000000    0.00000000
     atom  119 type  2   force =     0.00000000    0.00000000    0.00000000
     atom  120 type  2   force =     0.00000000    0.00000000    0.00000000
     atom  121 type  1   force =     0.00000000    0.00000000    0.00000000
     atom  122 type  1   force =     0.00000000    0.00000000    0.00000000
     atom  123 type  1   force =     0.00000000    0.00000000    0.00000000
     atom  124 type  1   force =     0.00000000    0.00000000    0.00000000
     atom  125 type  1   force =     0.00000000    0.00000000    0.00000000
     atom  126 type  1   force =     0.00000000    0.00000000    0.00000000
     atom  127 type  2   force =     0.00000000    0.00000000    0.00000000
     atom  128 type  2   force =     0.00000000    0.00000000    0.00000000
     atom  129 type  2   force =     0.00000000    0.00000000    0.00000000
     atom  130 type  2   force =     0.00000000    0.00000000    0.00000000
     atom  131 type  2   force =     0.00000000    0.00000000    0.00000000
     atom  132 type  2   force =     0.00000000    0.00000000    0.00000000
     atom  133 type  2   force =     0.00000000    0.00000000    0.00000000
     atom  134 type  2   force =     0.00000000    0.00000000    0.00000000
     atom  135 type  2   force =     0.00000000    0.00000000    0.00000000
     atom  136 type  3   force =     0.00000000    0.00000000    0.00000000
     atom  137 type  4   force =     0.00000000    0.00000000    0.00000000
     atom  138 type  4   force =     0.00000000    0.00000000    0.00000000
     atom  139 type  3   force =     0.00000000    0.00000000    0.00000000
     atom  140 type  4   force =     0.00000000    0.00000000    0.00000000
     atom  141 type  4   force =     0.00000000    0.00000000    0.00000000
     atom  142 type  3   force =     0.00000000    0.00000000    0.00000000
     atom  143 type  4   force =     0.00000000    0.00000000    0.00000000
     atom  144 type  4   force =     0.00000000    0.00000000    0.00000000
     atom  145 type  3   force =     0.00000000    0.00000000    0.00000000
     atom  146 type  4   force =     0.00000000    0.00000000    0.00000000
     atom  147 type  4   force =     0.00000000    0.00000000    0.00000000
     atom  148 type  3   force =     0.00000000    0.00000000    0.00000000
     atom  149 type  4   force =     0.00000000    0.00000000    0.00000000
     atom  150 type  4   force =     0.00000000    0.00000000    0.00000000
     atom  151 type  3   force =     0.00000000    0.00000000    0.00000000
     atom  152 type  4   force =     0.00000000    0.00000000    0.00000000
     atom  153 type  4   force =     0.00000000    0.00000000    0.00000000
     atom  154 type  3   force =     0.00000000    0.00000000    0.00000000
     atom  155 type  4   force =     0.00000000    0.00000000    0.00000000
     atom  156 type  4   force =     0.00000000    0.00000000    0.00000000
     atom  157 type  3   force =     0.00000000    0.00000000    0.00000000
     atom  158 type  4   force =     0.00000000    0.00000000    0.00000000
     atom  159 type  4   force =     0.00000000    0.00000000    0.00000000
     atom  160 type  3   force =     0.00000000    0.00000000    0.00000000
     atom  161 type  4   force =     0.00000000    0.00000000    0.00000000
     atom  162 type  4   force =     0.00000000    0.00000000    0.00000000
     atom  163 type  3   force =     0.00000000    0.00000000    0.00000000
     atom  164 type  4   force =     0.00000000    0.00000000    0.00000000
     atom  165 type  4   force =     0.00000000    0.00000000    0.00000000
     atom  166 type  3   force =     0.00000000    0.00000000    0.00000000
     atom  167 type  4   force =     0.00000000    0.00000000    0.00000000
     atom  168 type  4   force =     0.00000000    0.00000000    0.00000000
     atom  169 type  3   force =     0.00000000    0.00000000    0.00000000
     atom  170 type  4   force =     0.00000000    0.00000000    0.00000000
     atom  171 type  4   force =     0.00000000    0.00000000    0.00000000
     atom  172 type  3   force =     0.00000000    0.00000000    0.00000000
     atom  173 type  4   force =     0.00000000    0.00000000    0.00000000
     atom  174 type  4   force =     0.00000000    0.00000000    0.00000000
     atom  175 type  3   force =     0.00000000    0.00000000    0.00000000
     atom  176 type  4   force =     0.00000000    0.00000000    0.00000000
     atom  177 type  4   force =     0.00000000    0.00000000    0.00000000
     atom  178 type  3   force =     0.00000000    0.00000000    0.00000000
     atom  179 type  4   force =     0.00000000    0.00000000    0.00000000
     atom  180 type  4   force =     0.00000000    0.00000000    0.00000000
     atom  181 type  3   force =     0.00000000    0.00000000    0.00000000
     atom  182 type  4   force =     0.00000000    0.00000000    0.00000000
     atom  183 type  4   force =     0.00000000    0.00000000    0.00000000
     atom  184 type  5   force =     0.00000000    0.00000000    0.00000000
     atom  185 type  5   force =     0.00000000    0.00000000    0.00000000
     atom  186 type  5   force =     0.00000000    0.00000000    0.00000000
     atom  187 type  5   force =     0.00000000    0.00000000    0.00000000
     atom  188 type  5   force =     0.00000000    0.00000000    0.00000000
     atom  189 type  5   force =     0.00000000    0.00000000    0.00000000
     atom  190 type  5   force =     0.00000000    0.00000000    0.00000000
     atom  191 type  5   force =     0.00000000    0.00000000    0.00000000
     atom  192 type  5   force =     0.00000000    0.00000000    0.00000000
     atom  193 type  5   force =     0.00000000    0.00000000    0.00000000
     atom  194 type  5   force =     0.00000000    0.00000000    0.00000000
     atom  195 type  5   force =     0.00000000    0.00000000    0.00000000
     atom  196 type  5   force =     0.00000000    0.00000000    0.00000000
     atom  197 type  5   force =     0.00000000    0.00000000    0.00000000
     atom  198 type  5   force =     0.00000000    0.00000000    0.00000000
     atom  199 type  5   force =     0.00000000    0.00000000    0.00000000
     atom  200 type  5   force =     0.00000000    0.00000000    0.00000000
     atom  201 type  5   force =     0.00000000    0.00000000    0.00000000
     atom  202 type  5   force =     0.00000000    0.00000000    0.00000000
     atom  203 type  5   force =     0.00000000    0.00000000    0.00000000
     atom  204 type  5   force =     0.00000000    0.00000000    0.00000000
     atom  205 type  5   force =     0.00000000    0.00000000    0.00000000
     atom  206 type  5   force =     0.00000000    0.00000000    0.00000000
     atom  207 type  5   force =     0.00000000    0.00000000    0.00000000
     atom  208 type  5   force =     0.00000000    0.00000000    0.00000000
     atom  209 type  5   force =     0.00000000    0.00000000    0.00000000
     atom  210 type  5   force =     0.00000000    0.00000000    0.00000000
     atom  211 type  5   force =     0.00000000    0.00000000    0.00000000
     atom  212 type  5   force =     0.00000000    0.00000000    0.00000000
     atom  213 type  5   force =     0.00000000    0.00000000    0.00000000
     atom  214 type  5   force =     0.00000000    0.00000000    0.00000000
     atom  215 type  6   force =     0.00000000    0.00000000    0.00000000
     atom  216 type  6   force =     0.00000000    0.00000000    0.00000000
     atom  217 type  6   force =     0.00000000    0.00000000    0.00000000
     atom  218 type  6   force =     0.00000000    0.00000000    0.00000000
     atom  219 type  6   force =     0.00000000    0.00000000    0.00000000
     atom  220 type  6   force =     0.00000000    0.00000000    0.00000000
     atom  221 type  6   force =     0.00000000    0.00000000    0.00000000
     atom  222 type  6   force =     0.00000000    0.00000000    0.00000000
     atom  223 type  6   force =     0.00000000    0.00000000    0.00000000
     atom  224 type  6   force =     0.00000000    0.00000000    0.00000000
     atom  225 type  6   force =     0.00000000    0.00000000    0.00000000
     atom  226 type  6   force =     0.00000000    0.00000000    0.00000000
     atom  227 type  6   force =     0.00000000    0.00000000    0.00000000
     atom  228 type  6   force =     0.00000000    0.00000000    0.00000000
     atom  229 type  6   force =     0.00000000    0.00000000    0.00000000
     atom  230 type  6   force =     0.00000000    0.00000000    0.00000000
     atom  231 type  6   force =     0.00000000    0.00000000    0.00000000
     atom  232 type  6   force =     0.00000000    0.00000000    0.00000000
     atom  233 type  6   force =     0.00000000    0.00000000    0.00000000
     atom  234 type  6   force =     0.00000000    0.00000000    0.00000000
     atom  235 type  6   force =     0.00000000    0.00000000    0.00000000
     atom  236 type  6   force =     0.00000000    0.00000000    0.00000000
     atom  237 type  6   force =     0.00000000    0.00000000    0.00000000
     atom  238 type  6   force =     0.00000000    0.00000000    0.00000000
     atom  239 type  6   force =     0.00000000    0.00000000    0.00000000
     atom  240 type  6   force =     0.00000000    0.00000000    0.00000000
     atom  241 type  6   force =     0.00000000    0.00000000    0.00000000
     atom  242 type  6   force =     0.00000000    0.00000000    0.00000000
     atom  243 type  6   force =     0.00000000    0.00000000    0.00000000
     atom  244 type  6   force =     0.00000000    0.00000000    0.00000000
     atom  245 type  6   force =     0.00000000    0.00000000    0.00000000
     The SCF correction term to forces
     atom    1 type  1   force =    -0.00000004    0.00000013    0.00000218
     atom    2 type  1   force =    -0.00000103    0.00000090   -0.00000027
     atom    3 type  1   force =     0.00000103   -0.00000106    0.00000404
     atom    4 type  1   force =    -0.00000087   -0.00000064   -0.00000069
     atom    5 type  1   force =     0.00000042   -0.00000007   -0.00000191
     atom    6 type  1   force =     0.00000083    0.00000001    0.00000322
     atom    7 type  2   force =    -0.00000217    0.00000040    0.00001084
     atom    8 type  2   force =     0.00000130   -0.00000201    0.00001107
     atom    9 type  2   force =     0.00000114    0.00000220    0.00001109
     atom   10 type  2   force =    -0.00000094    0.00000204   -0.00000680
     atom   11 type  2   force =    -0.00000173    0.00000203   -0.00000869
     atom   12 type  2   force =    -0.00000309    0.00000014   -0.00000813
     atom   13 type  2   force =    -0.00000007    0.00000001    0.00000464
     atom   14 type  2   force =    -0.00000048    0.00000379    0.00000799
     atom   15 type  2   force =    -0.00000023   -0.00000004    0.00000448
     atom   16 type  1   force =    -0.00000031   -0.00000031    0.00000471
     atom   17 type  1   force =     0.00000005   -0.00000045    0.00000039
     atom   18 type  1   force =    -0.00000145    0.00000076    0.00000498
     atom   19 type  1   force =    -0.00000055    0.00000065   -0.00000101
     atom   20 type  1   force =    -0.00000062    0.00000118   -0.00000368
     atom   21 type  1   force =    -0.00000188   -0.00000114    0.00000397
     atom   22 type  2   force =    -0.00000839   -0.00000536    0.00001235
     atom   23 type  2   force =    -0.00000173   -0.00000743    0.00001445
     atom   24 type  2   force =    -0.00000036    0.00000289    0.00001378
     atom   25 type  2   force =     0.00000005    0.00000044   -0.00000825
     atom   26 type  2   force =     0.00000097   -0.00000018   -0.00000584
     atom   27 type  2   force =     0.00000141    0.00000063   -0.00000741
     atom   28 type  2   force =    -0.00000234    0.00000229    0.00000502
     atom   29 type  2   force =    -0.00000123   -0.00000158    0.00000490
     atom   30 type  2   force =     0.00000005    0.00000001    0.00000516
     atom   31 type  1   force =    -0.00000230   -0.00000116    0.00000547
     atom   32 type  1   force =    -0.00000013   -0.00000134    0.00000009
     atom   33 type  1   force =    -0.00000006   -0.00000166    0.00000484
     atom   34 type  1   force =    -0.00000010   -0.00000076   -0.00000075
     atom   35 type  1   force =     0.00000059   -0.00000065   -0.00000168
     atom   36 type  1   force =    -0.00000043    0.00000059    0.00000324
     atom   37 type  2   force =    -0.00000289   -0.00000116    0.00001334
     atom   38 type  2   force =    -0.00000371    0.00000082    0.00001110
     atom   39 type  2   force =    -0.00000556   -0.00000251    0.00001164
     atom   40 type  2   force =     0.00000203   -0.00000269   -0.00000504
     atom   41 type  2   force =    -0.00000045   -0.00000226   -0.00000629
     atom   42 type  2   force =    -0.00000013   -0.00000235   -0.00000732
     atom   43 type  2   force =    -0.00000053   -0.00000451    0.00001174
     atom   44 type  2   force =    -0.00000090   -0.00000305    0.00000486
     atom   45 type  2   force =    -0.00000290   -0.00000252    0.00000814
     atom   46 type  1   force =    -0.00000003    0.00000044    0.00000418
     atom   47 type  1   force =     0.00000121    0.00000051    0.00000024
     atom   48 type  1   force =     0.00000048    0.00000152    0.00000381
     atom   49 type  1   force =     0.00000111   -0.00000049    0.00000026
     atom   50 type  1   force =     0.00000104   -0.00000011   -0.00000152
     atom   51 type  1   force =    -0.00000034   -0.00000052    0.00000328
     atom   52 type  2   force =    -0.00000613    0.00000502    0.00001403
     atom   53 type  2   force =     0.00000260   -0.00000104    0.00001333
     atom   54 type  2   force =    -0.00000001    0.00001060    0.00001191
     atom   55 type  2   force =     0.00000246    0.00000014   -0.00000456
     atom   56 type  2   force =     0.00000197    0.00000234   -0.00000621
     atom   57 type  2   force =     0.00000304   -0.00000005   -0.00000412
     atom   58 type  2   force =    -0.00000104    0.00000473    0.00001003
     atom   59 type  2   force =    -0.00000021    0.00000042    0.00000434
     atom   60 type  2   force =     0.00000299    0.00000108    0.00000454
     atom   61 type  1   force =     0.00000207   -0.00000147    0.00000515
     atom   62 type  1   force =    -0.00000039    0.00000010    0.00000174
     atom   63 type  1   force =    -0.00000132   -0.00000037    0.00000397
     atom   64 type  1   force =    -0.00000011    0.00000116   -0.00000055
     atom   65 type  1   force =     0.00000066    0.00000051   -0.00000231
     atom   66 type  1   force =    -0.00000200   -0.00000327    0.00000232
     atom   67 type  2   force =     0.00000438   -0.00000382    0.00001150
     atom   68 type  2   force =     0.00000291   -0.00000226    0.00001343
     atom   69 type  2   force =     0.00000156   -0.00000345    0.00001119
     atom   70 type  2   force =     0.00000044    0.00000044   -0.00000588
     atom   71 type  2   force =    -0.00000117   -0.00000017   -0.00000644
     atom   72 type  2   force =    -0.00000044    0.00000246   -0.00000819
     atom   73 type  2   force =     0.00000323   -0.00000110    0.00000740
     atom   74 type  2   force =    -0.00000371   -0.00000341    0.00001063
     atom   75 type  2   force =    -0.00000161   -0.00000105    0.00001099
     atom   76 type  1   force =     0.00000002   -0.00000012    0.00000918
     atom   77 type  1   force =     0.00000020    0.00000014    0.00000234
     atom   78 type  1   force =    -0.00000143   -0.00000283    0.00000772
     atom   79 type  1   force =    -0.00000041   -0.00000051    0.00000091
     atom   80 type  1   force =    -0.00000037    0.00000012   -0.00000218
     atom   81 type  1   force =    -0.00000176    0.00000362    0.00000224
     atom   82 type  2   force =     0.00000645   -0.00000087    0.00001309
     atom   83 type  2   force =    -0.00000253    0.00000593    0.00001300
     atom   84 type  2   force =    -0.00000363   -0.00000499    0.00001314
     atom   85 type  2   force =    -0.00000071    0.00000110   -0.00000452
     atom   86 type  2   force =     0.00000234   -0.00000065   -0.00000378
     atom   87 type  2   force =     0.00000017   -0.00000052   -0.00000353
     atom   88 type  2   force =     0.00000159   -0.00000138    0.00001551
     atom   89 type  2   force =    -0.00000004    0.00000166    0.00001127
     atom   90 type  2   force =    -0.00000189   -0.00000106    0.00001577
     atom   91 type  1   force =     0.00000025    0.00000263    0.00000545
     atom   92 type  1   force =    -0.00000037    0.00000026    0.00000055
     atom   93 type  1   force =    -0.00000178    0.00000282    0.00000748
     atom   94 type  1   force =    -0.00000039    0.00000062    0.00000109
     atom   95 type  1   force =    -0.00000124    0.00000012   -0.00000279
     atom   96 type  1   force =    -0.00000019    0.00000209    0.00000410
     atom   97 type  2   force =     0.00000260    0.00000288    0.00001141
     atom   98 type  2   force =     0.00000080    0.00000603    0.00001167
     atom   99 type  2   force =     0.00000042    0.00000303    0.00001339
     atom  100 type  2   force =    -0.00000130   -0.00000032   -0.00000649
     atom  101 type  2   force =    -0.00000066   -0.00000184   -0.00000573
     atom  102 type  2   force =    -0.00000075   -0.00000016   -0.00000550
     atom  103 type  2   force =     0.00000189   -0.00000079    0.00001108
     atom  104 type  2   force =     0.00000005    0.00000015    0.00000461
     atom  105 type  2   force =    -0.00000316    0.00000275    0.00001133
     atom  106 type  1   force =    -0.00000001    0.00000001    0.00000366
     atom  107 type  1   force =     0.00000042    0.00000017    0.00000029
     atom  108 type  1   force =     0.00000130    0.00000093    0.00000465
     atom  109 type  1   force =     0.00000075    0.00000014   -0.00000045
     atom  110 type  1   force =    -0.00000006   -0.00000007   -0.00000310
     atom  111 type  1   force =     0.00000182   -0.00000115    0.00000409
     atom  112 type  2   force =    -0.00000244   -0.00000113    0.00001320
     atom  113 type  2   force =     0.00000219   -0.00000170    0.00001298
     atom  114 type  2   force =    -0.00000007    0.00000272    0.00001292
     atom  115 type  2   force =    -0.00000091    0.00000101   -0.00000687
     atom  116 type  2   force =     0.00000014   -0.00000013   -0.00000848
     atom  117 type  2   force =     0.00000017    0.00000036   -0.00000565
     atom  118 type  2   force =    -0.00000037    0.00000213    0.00000482
     atom  119 type  2   force =     0.00000381    0.00000156    0.00001102
     atom  120 type  2   force =     0.00000198   -0.00000039    0.00000460
     atom  121 type  1   force =     0.00000044   -0.00000016    0.00000444
     atom  122 type  1   force =     0.00000003   -0.00000031    0.00000169
     atom  123 type  1   force =     0.00000316   -0.00000003    0.00000755
     atom  124 type  1   force =     0.00000056   -0.00000012    0.00000052
     atom  125 type  1   force =    -0.00000036   -0.00000109   -0.00000341
     atom  126 type  1   force =     0.00000390   -0.00000030    0.00000223
     atom  127 type  2   force =    -0.00000271   -0.00000195    0.00001356
     atom  128 type  2   force =     0.00000875   -0.00000501    0.00001235
     atom  129 type  2   force =     0.00000700    0.00000217    0.00001437
     atom  130 type  2   force =    -0.00000170   -0.00000158   -0.00000839
     atom  131 type  2   force =    -0.00000140    0.00000029   -0.00000531
     atom  132 type  2   force =     0.00000031   -0.00000042   -0.00000689
     atom  133 type  2   force =    -0.00000002   -0.00000002    0.00000489
     atom  134 type  2   force =     0.00000042    0.00000187    0.00001545
     atom  135 type  2   force =     0.00000470   -0.00000152    0.00001005
     atom  136 type  3   force =     0.00001500   -0.00000449   -0.00000205
     atom  137 type  4   force =     0.00000439   -0.00000204   -0.00000913
     atom  138 type  4   force =     0.00000436   -0.00000222   -0.00000937
     atom  139 type  3   force =     0.00000426    0.00000046   -0.00000128
     atom  140 type  4   force =     0.00000004    0.00000267   -0.00000654
     atom  141 type  4   force =    -0.00000038    0.00000205   -0.00001250
     atom  142 type  3   force =    -0.00000190    0.00001250    0.00000065
     atom  143 type  4   force =     0.00000009    0.00000452   -0.00001135
     atom  144 type  4   force =    -0.00000061    0.00000431   -0.00000802
     atom  145 type  3   force =     0.00000782    0.00000614   -0.00000101
     atom  146 type  4   force =     0.00000449    0.00000020   -0.00001347
     atom  147 type  4   force =     0.00000420    0.00000007   -0.00000473
     atom  148 type  3   force =     0.00000340   -0.00000237   -0.00000027
     atom  149 type  4   force =     0.00000131   -0.00000412   -0.00001261
     atom  150 type  4   force =     0.00000120   -0.00000388   -0.00000624
     atom  151 type  3   force =     0.00001072   -0.00000874   -0.00000115
     atom  152 type  4   force =     0.00000136   -0.00000152   -0.00000823
     atom  153 type  4   force =     0.00000169   -0.00000224   -0.00001101
     atom  154 type  3   force =     0.00000006    0.00000582    0.00000205
     atom  155 type  4   force =    -0.00000330    0.00000259   -0.00000947
     atom  156 type  4   force =    -0.00000319    0.00000244   -0.00000927
     atom  157 type  3   force =    -0.00000696    0.00000917    0.00000227
     atom  158 type  4   force =    -0.00000371    0.00000080   -0.00001301
     atom  159 type  4   force =    -0.00000368    0.00000112   -0.00000558
     atom  160 type  3   force =    -0.00001602   -0.00000220    0.00000089
     atom  161 type  4   force =    -0.00000486   -0.00000204   -0.00000952
     atom  162 type  4   force =    -0.00000449   -0.00000181   -0.00001044
     atom  163 type  3   force =    -0.00000608   -0.00000961   -0.00000044
     atom  164 type  4   force =    -0.00000040   -0.00000210   -0.00000917
     atom  165 type  4   force =    -0.00000008   -0.00000209   -0.00001073
     atom  166 type  3   force =     0.00000205   -0.00000554    0.00000076
     atom  167 type  4   force =     0.00000035   -0.00000078   -0.00000699
     atom  168 type  4   force =     0.00000079   -0.00000098   -0.00001168
     atom  169 type  3   force =    -0.00000931    0.00000028    0.00000226
     atom  170 type  4   force =    -0.00000464   -0.00000057   -0.00000761
     atom  171 type  4   force =    -0.00000408    0.00000031   -0.00001191
     atom  172 type  3   force =    -0.00000225   -0.00000249   -0.00000160
     atom  173 type  4   force =    -0.00000095    0.00000051   -0.00000592
     atom  174 type  4   force =    -0.00000098    0.00000016   -0.00001389
     atom  175 type  3   force =    -0.00000883   -0.00000001   -0.00000124
     atom  176 type  4   force =    -0.00000100    0.00000225   -0.00000776
     atom  177 type  4   force =    -0.00000125    0.00000220   -0.00001256
     atom  178 type  3   force =     0.00000000    0.00000286   -0.00000143
     atom  179 type  4   force =     0.00000263    0.00000132   -0.00000988
     atom  180 type  4   force =     0.00000315    0.00000106   -0.00000936
     atom  181 type  3   force =     0.00000868   -0.00000205   -0.00000030
     atom  182 type  4   force =     0.00000375   -0.00000141   -0.00000825
     atom  183 type  4   force =     0.00000374   -0.00000072   -0.00001030
     atom  184 type  5   force =    -0.00000034    0.00000040   -0.00000698
     atom  185 type  5   force =    -0.00000002   -0.00000047   -0.00000715
     atom  186 type  5   force =     0.00000092   -0.00000007   -0.00000727
     atom  187 type  5   force =     0.00000041   -0.00000032   -0.00000745
     atom  188 type  5   force =    -0.00000007    0.00000009   -0.00000746
     atom  189 type  5   force =     0.00000015    0.00000064   -0.00000747
     atom  190 type  5   force =    -0.00000024   -0.00000076   -0.00000741
     atom  191 type  5   force =    -0.00000007   -0.00000053   -0.00000720
     atom  192 type  5   force =     0.00000009    0.00000053   -0.00000736
     atom  193 type  5   force =    -0.00000009   -0.00000013   -0.00000791
     atom  194 type  5   force =     0.00000087   -0.00000013   -0.00000829
     atom  195 type  5   force =     0.00000110   -0.00000022   -0.00000835
     atom  196 type  5   force =    -0.00000004   -0.00000050   -0.00000798
     atom  197 type  5   force =    -0.00000044    0.00000074   -0.00000760
     atom  198 type  5   force =    -0.00000064    0.00000026   -0.00000788
     atom  199 type  5   force =    -0.00000045   -0.00000100   -0.00000842
     atom  200 type  5   force =     0.00000053    0.00000004   -0.00000870
     atom  201 type  5   force =     0.00000036    0.00000036   -0.00000862
     atom  202 type  5   force =     0.00000024    0.00000029   -0.00000803
     atom  203 type  5   force =     0.00000053    0.00000040   -0.00000763
     atom  204 type  5   force =    -0.00000032   -0.00000080   -0.00000791
     atom  205 type  5   force =    -0.00000088   -0.00000028   -0.00000832
     atom  206 type  5   force =    -0.00000070    0.00000101   -0.00000853
     atom  207 type  5   force =    -0.00000053    0.00000001   -0.00000817
     atom  208 type  5   force =     0.00000047   -0.00000006   -0.00000737
     atom  209 type  5   force =     0.00000063    0.00000020   -0.00000713
     atom  210 type  5   force =    -0.00000035   -0.00000023   -0.00000749
     atom  211 type  5   force =    -0.00000023    0.00000055   -0.00000785
     atom  212 type  5   force =    -0.00000020    0.00000005   -0.00000784
     atom  213 type  5   force =    -0.00000051   -0.00000063   -0.00000738
     atom  214 type  5   force =    -0.00000020    0.00000058   -0.00000693
     atom  215 type  6   force =     0.00000131   -0.00000035   -0.00001263
     atom  216 type  6   force =    -0.00000041   -0.00000100   -0.00001249
     atom  217 type  6   force =    -0.00000060    0.00000099   -0.00001213
     atom  218 type  6   force =    -0.00000041    0.00000036   -0.00001213
     atom  219 type  6   force =    -0.00000008   -0.00000169   -0.00001205
     atom  220 type  6   force =     0.00000131    0.00000004   -0.00001208
     atom  221 type  6   force =     0.00000066    0.00000030   -0.00001275
     atom  222 type  6   force =     0.00000042   -0.00000044   -0.00001345
     atom  223 type  6   force =     0.00000163    0.00000022   -0.00001362
     atom  224 type  6   force =     0.00000050   -0.00000118   -0.00001341
     atom  225 type  6   force =    -0.00000090   -0.00000017   -0.00001279
     atom  226 type  6   force =    -0.00000086    0.00000161   -0.00001278
     atom  227 type  6   force =    -0.00000090   -0.00000097   -0.00001379
     atom  228 type  6   force =     0.00000083   -0.00000118   -0.00001457
     atom  229 type  6   force =     0.00000163    0.00000055   -0.00001467
     atom  230 type  6   force =     0.00000010    0.00000026   -0.00001411
     atom  231 type  6   force =    -0.00000001    0.00000114   -0.00001308
     atom  232 type  6   force =    -0.00000018   -0.00000016   -0.00001319
     atom  233 type  6   force =    -0.00000137   -0.00000185   -0.00001401
     atom  234 type  6   force =    -0.00000109    0.00000101   -0.00001462
     atom  235 type  6   force =    -0.00000086    0.00000129   -0.00001456
     atom  236 type  6   force =     0.00000010   -0.00000034   -0.00001340
     atom  237 type  6   force =     0.00000166    0.00000026   -0.00001238
     atom  238 type  6   force =     0.00000022   -0.00000043   -0.00001265
     atom  239 type  6   force =    -0.00000131    0.00000032   -0.00001346
     atom  240 type  6   force =    -0.00000105    0.00000162   -0.00001377
     atom  241 type  6   force =    -0.00000116   -0.00000091   -0.00001321
     atom  242 type  6   force =    -0.00000043   -0.00000065   -0.00001207
     atom  243 type  6   force =     0.00000031    0.00000126   -0.00001166
     atom  244 type  6   force =    -0.00000024   -0.00000008   -0.00001208
     atom  245 type  6   force =     0.00000102    0.00000010   -0.00001251

     DFT-D3 dispersion contribution to forces:
     atom    1 type  1   force =    -0.00000000    0.00000005    0.00215217
     atom    2 type  1   force =     0.00001045   -0.00000504   -0.00008475
     atom    3 type  1   force =    -0.00000074   -0.00000041    0.00303686
     atom    4 type  1   force =    -0.00004781   -0.00002777   -0.00018693
     atom    5 type  1   force =     0.00000012    0.00000058   -0.00022505
     atom    6 type  1   force =    -0.00000001   -0.00000000    0.00406237
     atom    7 type  2   force =     0.00004993   -0.00000756    0.00153772
     atom    8 type  2   force =    -0.00001843    0.00004702    0.00153772
     atom    9 type  2   force =    -0.00003150   -0.00003947    0.00153772
     atom   10 type  2   force =    -0.00000174   -0.00007057   -0.00035081
     atom   11 type  2   force =     0.00004025    0.00011661   -0.00038662
     atom   12 type  2   force =    -0.00009296   -0.00001388   -0.00029210
     atom   13 type  2   force =    -0.00016600   -0.00007406    0.00011421
     atom   14 type  2   force =     0.00014728   -0.00010707    0.00011704
     atom   15 type  2   force =     0.00001886    0.00018082    0.00011424
     atom   16 type  1   force =     0.00000041    0.00000214    0.00216003
     atom   17 type  1   force =     0.00002646    0.00001597   -0.00011426
     atom   18 type  1   force =    -0.00000015   -0.00000017    0.00303820
     atom   19 type  1   force =    -0.00003454    0.00002020   -0.00012435
     atom   20 type  1   force =    -0.00003055   -0.00001208   -0.00011736
     atom   21 type  1   force =    -0.00000013   -0.00000012    0.00406290
     atom   22 type  2   force =     0.00005001   -0.00000757    0.00153759
     atom   23 type  2   force =    -0.00001844    0.00004713    0.00153759
     atom   24 type  2   force =    -0.00003162   -0.00003962    0.00153763
     atom   25 type  2   force =     0.00001487   -0.00001816   -0.00030574
     atom   26 type  2   force =     0.00001470    0.00009536   -0.00029439
     atom   27 type  2   force =    -0.00006469   -0.00008674   -0.00035338
     atom   28 type  2   force =    -0.00016708   -0.00007306    0.00011602
     atom   29 type  2   force =     0.00014834   -0.00010779    0.00011718
     atom   30 type  2   force =     0.00001947    0.00018210    0.00011774
     atom   31 type  1   force =     0.00000292   -0.00000093    0.00215935
     atom   32 type  1   force =    -0.00000023    0.00001152   -0.00008540
     atom   33 type  1   force =     0.00000024   -0.00000006    0.00303818
     atom   34 type  1   force =     0.00000024   -0.00004025   -0.00012453
     atom   35 type  1   force =    -0.00001711   -0.00002026   -0.00011436
     atom   36 type  1   force =     0.00000001   -0.00000001    0.00406237
     atom   37 type  2   force =     0.00005003   -0.00000750    0.00153763
     atom   38 type  2   force =    -0.00001850    0.00004709    0.00153755
     atom   39 type  2   force =    -0.00003173   -0.00003951    0.00153763
     atom   40 type  2   force =     0.00005886   -0.00007360   -0.00029212
     atom   41 type  2   force =     0.00006230    0.00003406   -0.00035100
     atom   42 type  2   force =    -0.00012075   -0.00002378   -0.00038702
     atom   43 type  2   force =    -0.00016638   -0.00007387    0.00011867
     atom   44 type  2   force =     0.00014686   -0.00010819    0.00011581
     atom   45 type  2   force =     0.00001911    0.00018107    0.00011702
     atom   46 type  1   force =     0.00000161   -0.00000134    0.00215959
     atom   47 type  1   force =    -0.00001018   -0.00000557   -0.00008487
     atom   48 type  1   force =     0.00000072   -0.00000044    0.00303688
     atom   49 type  1   force =     0.00004808   -0.00002758   -0.00018682
     atom   50 type  1   force =     0.00000458    0.00003327   -0.00011818
     atom   51 type  1   force =    -0.00000000    0.00000002    0.00406237
     atom   52 type  2   force =     0.00005003   -0.00000760    0.00153759
     atom   53 type  2   force =    -0.00001850    0.00004719    0.00153763
     atom   54 type  2   force =    -0.00003156   -0.00003953    0.00153758
     atom   55 type  2   force =     0.00008061   -0.00009257   -0.00038705
     atom   56 type  2   force =     0.00003414    0.00008812   -0.00029173
     atom   57 type  2   force =    -0.00006065    0.00003711   -0.00035084
     atom   58 type  2   force =    -0.00016662   -0.00007446    0.00011936
     atom   59 type  2   force =     0.00014713   -0.00010669    0.00011433
     atom   60 type  2   force =     0.00002024    0.00018128    0.00011583
     atom   61 type  1   force =    -0.00000071    0.00000297    0.00215961
     atom   62 type  1   force =     0.00000026    0.00001388   -0.00006165
     atom   63 type  1   force =     0.00000002    0.00000088    0.00303708
     atom   64 type  1   force =    -0.00000022    0.00005628   -0.00018577
     atom   65 type  1   force =     0.00002500   -0.00000461   -0.00011396
     atom   66 type  1   force =    -0.00000001   -0.00000013    0.00406247
     atom   67 type  2   force =     0.00005008   -0.00000772    0.00153763
     atom   68 type  2   force =    -0.00001852    0.00004708    0.00153763
     atom   69 type  2   force =    -0.00003153   -0.00003957    0.00153754
     atom   70 type  2   force =     0.00002085    0.00000430   -0.00040668
     atom   71 type  2   force =     0.00000635    0.00004863   -0.00031048
     atom   72 type  2   force =    -0.00002327   -0.00004169   -0.00031424
     atom   73 type  2   force =    -0.00016639   -0.00007397    0.00011711
     atom   74 type  2   force =     0.00014780   -0.00010708    0.00011968
     atom   75 type  2   force =     0.00001932    0.00018276    0.00011729
     atom   76 type  1   force =    -0.00000001   -0.00000010    0.00216437
     atom   77 type  1   force =     0.00001200   -0.00000771   -0.00006313
     atom   78 type  1   force =     0.00000074   -0.00000013    0.00304206
     atom   79 type  1   force =     0.00000863    0.00000663   -0.00011765
     atom   80 type  1   force =    -0.00000020   -0.00000140    0.00000081
     atom   81 type  1   force =    -0.00000011    0.00000007    0.00406247
     atom   82 type  2   force =     0.00005024   -0.00000760    0.00153734
     atom   83 type  2   force =    -0.00001853    0.00004730    0.00153734
     atom   84 type  2   force =    -0.00003171   -0.00003970    0.00153734
     atom   85 type  2   force =     0.00003905   -0.00003012   -0.00031102
     atom   86 type  2   force =    -0.00002446    0.00004115   -0.00031482
     atom   87 type  2   force =    -0.00000666   -0.00002096   -0.00040711
     atom   88 type  2   force =    -0.00016721   -0.00007378    0.00012055
     atom   89 type  2   force =     0.00014858   -0.00010813    0.00011704
     atom   90 type  2   force =     0.00001974    0.00018162    0.00012047
     atom   91 type  1   force =    -0.00000220   -0.00000202    0.00215921
     atom   92 type  1   force =     0.00000088   -0.00003025   -0.00011487
     atom   93 type  1   force =    -0.00000045   -0.00000058    0.00304181
     atom   94 type  1   force =     0.00000185   -0.00001091   -0.00011880
     atom   95 type  1   force =    -0.00000798    0.00002524   -0.00011490
     atom   96 type  1   force =    -0.00000004    0.00000018    0.00406290
     atom   97 type  2   force =     0.00005003   -0.00000752    0.00153754
     atom   98 type  2   force =    -0.00001835    0.00004724    0.00153763
     atom   99 type  2   force =    -0.00003151   -0.00003957    0.00153763
     atom  100 type  2   force =     0.00007539   -0.00006009   -0.00029440
     atom  101 type  2   force =    -0.00004276    0.00009971   -0.00035346
     atom  102 type  2   force =    -0.00002312   -0.00000348   -0.00030614
     atom  103 type  2   force =    -0.00016791   -0.00007462    0.00011697
     atom  104 type  2   force =     0.00014796   -0.00010786    0.00011762
     atom  105 type  2   force =     0.00001926    0.00018106    0.00011850
     atom  106 type  1   force =    -0.00000000    0.00000002    0.00215955
     atom  107 type  1   force =    -0.00002726    0.00001448   -0.00011421
     atom  108 type  1   force =    -0.00000009    0.00000026    0.00303819
     atom  109 type  1   force =     0.00003432    0.00002070   -0.00012456
     atom  110 type  1   force =    -0.00000009    0.00000009   -0.00017067
     atom  111 type  1   force =     0.00000018   -0.00000006    0.00406290
     atom  112 type  2   force =     0.00004997   -0.00000758    0.00153784
     atom  113 type  2   force =    -0.00001843    0.00004707    0.00153784
     atom  114 type  2   force =    -0.00003155   -0.00003949    0.00153784
     atom  115 type  2   force =     0.00010752   -0.00001284   -0.00035352
     atom  116 type  2   force =     0.00000817    0.00002159   -0.00030570
     atom  117 type  2   force =    -0.00009012   -0.00003490   -0.00029409
     atom  118 type  2   force =    -0.00016750   -0.00007455    0.00011714
     atom  119 type  2   force =     0.00014713   -0.00010720    0.00011873
     atom  120 type  2   force =     0.00001917    0.00018237    0.00011718
     atom  121 type  1   force =    -0.00000201   -0.00000078    0.00215970
     atom  122 type  1   force =    -0.00001237   -0.00000713   -0.00006341
     atom  123 type  1   force =    -0.00000028    0.00000065    0.00304203
     atom  124 type  1   force =    -0.00001056    0.00000312   -0.00011766
     atom  125 type  1   force =     0.00002616   -0.00002133   -0.00011815
     atom  126 type  1   force =     0.00000011    0.00000005    0.00406247
     atom  127 type  2   force =     0.00005012   -0.00000757    0.00153763
     atom  128 type  2   force =    -0.00001845    0.00004710    0.00153759
     atom  129 type  2   force =    -0.00003161   -0.00003953    0.00153760
     atom  130 type  2   force =     0.00004804    0.00000040   -0.00031504
     atom  131 type  2   force =    -0.00001428    0.00001609   -0.00040737
     atom  132 type  2   force =    -0.00004557   -0.00001969   -0.00031097
     atom  133 type  2   force =    -0.00016742   -0.00007422    0.00011769
     atom  134 type  2   force =     0.00014745   -0.00010797    0.00012032
     atom  135 type  2   force =     0.00001883    0.00018148    0.00011947
     atom  136 type  3   force =     0.00000029    0.00000060   -0.00059373
     atom  137 type  4   force =     0.00001859   -0.00003929   -0.00012445
     atom  138 type  4   force =    -0.00000127    0.00015703   -0.00061752
     atom  139 type  3   force =     0.00000500   -0.00005783   -0.00068230
     atom  140 type  4   force =    -0.00002885   -0.00005480   -0.00012581
     atom  141 type  4   force =     0.00013893    0.00022578   -0.00059864
     atom  142 type  3   force =    -0.00003506   -0.00001520   -0.00076940
     atom  143 type  4   force =    -0.00009160    0.00000591   -0.00013476
     atom  144 type  4   force =     0.00026831    0.00000713   -0.00061010
     atom  145 type  3   force =    -0.00004188    0.00003014   -0.00063609
     atom  146 type  4   force =    -0.00004352    0.00000296   -0.00012340
     atom  147 type  4   force =     0.00013522   -0.00007506   -0.00061736
     atom  148 type  3   force =    -0.00005417    0.00002558   -0.00068038
     atom  149 type  4   force =    -0.00002838    0.00001910   -0.00014561
     atom  150 type  4   force =    -0.00000516   -0.00001059   -0.00063597
     atom  151 type  3   force =    -0.00000642   -0.00005060   -0.00063778
     atom  152 type  4   force =     0.00003998   -0.00008371   -0.00013597
     atom  153 type  4   force =    -0.00014116    0.00022899   -0.00061062
     atom  154 type  3   force =     0.00000724   -0.00005386   -0.00082653
     atom  155 type  4   force =    -0.00000006   -0.00000017   -0.00008697
     atom  156 type  4   force =     0.00000016   -0.00000052   -0.00058906
     atom  157 type  3   force =    -0.00004929    0.00001882   -0.00082465
     atom  158 type  4   force =    -0.00003303    0.00005141   -0.00012352
     atom  159 type  4   force =     0.00012602   -0.00023334   -0.00059869
     atom  160 type  3   force =     0.00000488    0.00003868   -0.00076720
     atom  161 type  4   force =     0.00001139    0.00002989   -0.00013656
     atom  162 type  4   force =    -0.00000415   -0.00016802   -0.00068755
     atom  163 type  3   force =    -0.00000271   -0.00000222   -0.00074755
     atom  164 type  4   force =     0.00002215   -0.00002572   -0.00013714
     atom  165 type  4   force =    -0.00014557    0.00008825   -0.00068694
     atom  166 type  3   force =     0.00002987   -0.00002435   -0.00076969
     atom  167 type  4   force =     0.00006185    0.00000244   -0.00012393
     atom  168 type  4   force =    -0.00026566    0.00000727   -0.00059801
     atom  169 type  3   force =     0.00004197    0.00003123   -0.00082473
     atom  170 type  4   force =     0.00005147    0.00007575   -0.00013386
     atom  171 type  4   force =    -0.00012725   -0.00023676   -0.00061036
     atom  172 type  3   force =     0.00004842    0.00002157   -0.00063589
     atom  173 type  4   force =    -0.00000273   -0.00003550   -0.00014573
     atom  174 type  4   force =     0.00001360    0.00000465   -0.00063583
     atom  175 type  3   force =     0.00000484    0.00000052   -0.00074767
     atom  176 type  4   force =    -0.00003330   -0.00000519   -0.00013698
     atom  177 type  4   force =     0.00014984    0.00008188   -0.00068682
     atom  178 type  3   force =    -0.00000163    0.00000367   -0.00074596
     atom  179 type  4   force =     0.00003061    0.00001410   -0.00014551
     atom  180 type  4   force =    -0.00000748    0.00000968   -0.00063543
     atom  181 type  3   force =     0.00004865    0.00003301   -0.00067966
     atom  182 type  4   force =     0.00002507    0.00003486   -0.00012338
     atom  183 type  4   force =    -0.00013409   -0.00007834   -0.00061759
     atom  184 type  5   force =     0.00004175   -0.00003881   -0.00171280
     atom  185 type  5   force =     0.00002419    0.00000432   -0.00172860
     atom  186 type  5   force =    -0.00003117    0.00002663   -0.00167219
     atom  187 type  5   force =     0.00000332    0.00003897   -0.00166400
     atom  188 type  5   force =    -0.00000819   -0.00002319   -0.00172859
     atom  189 type  5   force =    -0.00001827   -0.00006290   -0.00164893
     atom  190 type  5   force =     0.00006353    0.00001542   -0.00164929
     atom  191 type  5   force =     0.00003237    0.00001878   -0.00175177
     atom  192 type  5   force =     0.00000892   -0.00001573   -0.00172902
     atom  193 type  5   force =     0.00002265   -0.00002354   -0.00173787
     atom  194 type  5   force =    -0.00005433   -0.00001703   -0.00171253
     atom  195 type  5   force =    -0.00004516    0.00004705   -0.00164931
     atom  196 type  5   force =     0.00001255    0.00005540   -0.00171310
     atom  197 type  5   force =    -0.00000942   -0.00004448   -0.00170404
     atom  198 type  5   force =     0.00003626   -0.00004443   -0.00163715
     atom  199 type  5   force =     0.00004318    0.00001420   -0.00170399
     atom  200 type  5   force =    -0.00003261    0.00001837   -0.00175145
     atom  201 type  5   force =    -0.00001598    0.00001852   -0.00172890
     atom  202 type  5   force =    -0.00003200   -0.00000760   -0.00173800
     atom  203 type  5   force =    -0.00005684   -0.00000866   -0.00163715
     atom  204 type  5   force =     0.00002077    0.00005373   -0.00163708
     atom  205 type  5   force =     0.00000932    0.00001534   -0.00172896
     atom  206 type  5   force =    -0.00000740   -0.00004046   -0.00167190
     atom  207 type  5   force =     0.00003198   -0.00002187   -0.00166373
     atom  208 type  5   force =    -0.00001818    0.00000046   -0.00172916
     atom  209 type  5   force =    -0.00003392    0.00003031   -0.00170406
     atom  210 type  5   force =     0.00000929    0.00003134   -0.00173784
     atom  211 type  5   force =    -0.00003518   -0.00001684   -0.00166342
     atom  212 type  5   force =     0.00000010    0.00000025   -0.00159272
     atom  213 type  5   force =     0.00003849    0.00001399   -0.00167221
     atom  214 type  5   force =     0.00000002   -0.00003751   -0.00175134
     atom  215 type  6   force =     0.00002465   -0.00001119   -0.00127734
     atom  216 type  6   force =    -0.00002066   -0.00001277   -0.00127204
     atom  217 type  6   force =    -0.00001686    0.00001510   -0.00125871
     atom  218 type  6   force =     0.00000461    0.00001414   -0.00132239
     atom  219 type  6   force =    -0.00000475   -0.00002231   -0.00125886
     atom  220 type  6   force =     0.00003108   -0.00000357   -0.00121108
     atom  221 type  6   force =     0.00003353    0.00000219   -0.00128377
     atom  222 type  6   force =    -0.00000590   -0.00001793   -0.00132687
     atom  223 type  6   force =     0.00001015   -0.00001142   -0.00132233
     atom  224 type  6   force =    -0.00001478   -0.00000336   -0.00132251
     atom  225 type  6   force =    -0.00002351    0.00001835   -0.00123982
     atom  226 type  6   force =     0.00001387    0.00003096   -0.00125683
     atom  227 type  6   force =    -0.00000143   -0.00001633   -0.00130461
     atom  228 type  6   force =    -0.00000404   -0.00002959   -0.00123945
     atom  229 type  6   force =     0.00002158    0.00000686   -0.00125898
     atom  230 type  6   force =    -0.00001259    0.00001415   -0.00132741
     atom  231 type  6   force =    -0.00001337    0.00000955   -0.00130497
     atom  232 type  6   force =     0.00000005    0.00000009   -0.00132326
     atom  233 type  6   force =    -0.00003352   -0.00000338   -0.00125636
     atom  234 type  6   force =    -0.00001236    0.00002856   -0.00121087
     atom  235 type  6   force =    -0.00000102    0.00002445   -0.00127234
     atom  236 type  6   force =    -0.00001521   -0.00002987   -0.00128347
     atom  237 type  6   force =     0.00001963   -0.00002731   -0.00125642
     atom  238 type  6   force =     0.00001491    0.00000700   -0.00130478
     atom  239 type  6   force =    -0.00001840    0.00002789   -0.00128340
     atom  240 type  6   force =    -0.00000246    0.00002685   -0.00127738
     atom  241 type  6   force =    -0.00002211   -0.00001550   -0.00127718
     atom  242 type  6   force =    -0.00001878   -0.00002486   -0.00121093
     atom  243 type  6   force =     0.00002746    0.00001121   -0.00123962
     atom  244 type  6   force =     0.00001853    0.00000360   -0.00132709
     atom  245 type  6   force =     0.00002173   -0.00001156   -0.00127206

     Total force =     0.925661     Total SCF correction =     0.000149

     DFT-D3 dispersion Force =     0.022316


     Computing stress (Cartesian axis) and pressure


     negative rho (up, down):  5.564E-03 5.564E-03
          total   stress  (Ry/bohr**3)                   (kbar)     P=      -12.78
  -0.00007864  -0.00000003   0.00000001          -11.57       -0.00        0.00
  -0.00000003  -0.00007864   0.00000015           -0.00      -11.57        0.02
   0.00000001   0.00000015  -0.00010337            0.00        0.02      -15.21

     kinetic stress (kbar)   5203.89     -0.00      0.00
                               -0.00   5203.89      0.03
                                0.00      0.03   5321.73

     local   stress (kbar)-971597.64     -0.00     -0.01
                               -0.00-971597.61     -0.44
                               -0.01     -0.44 967897.72

     nonloc. stress (kbar)   1624.98     -0.00     -0.00
                               -0.00   1624.98     -0.00
                               -0.00     -0.00   1606.39

     hartree stress (kbar) 484082.15      0.00      0.00
                                0.00 484082.15      0.10
                                0.00      0.10-481871.52

     exc-cor stress (kbar)   1955.99      0.00      0.00
                                0.00   1955.99      0.00
                                0.00      0.00   1945.65

     corecor stress (kbar)  -3229.71     -0.00     -0.00
                               -0.00  -3229.71     -0.00
                               -0.00     -0.00  -3224.17

     ewald   stress (kbar) 481958.28      0.00      0.01
                                0.00 481958.26      0.35
                                0.01      0.35-491683.11

     hubbard stress (kbar)      0.00      0.00      0.00
                                0.00      0.00      0.00
                                0.00      0.00      0.00

     DFT-D   stress (kbar)     -9.52     -0.00     -0.00
                               -0.00     -9.52     -0.00
                               -0.00     -0.00     -7.90

     XDM     stress (kbar)      0.00      0.00      0.00
                                0.00      0.00      0.00
                                0.00      0.00      0.00

     dft-nl  stress (kbar)      0.00      0.00      0.00
                                0.00      0.00      0.00
                                0.00      0.00      0.00

     TS-vdW  stress (kbar)      0.00      0.00      0.00
                                0.00      0.00      0.00
                                0.00      0.00      0.00

     MDB     stress (kbar)      0.00      0.00      0.00
                                0.00      0.00      0.00
                                0.00      0.00      0.00

     3D-RISM stress (kbar)      0.00      0.00      0.00
                                0.00      0.00      0.00
                                0.00      0.00      0.00


     Writing all to output data dir ./REDACTED_PATH :
     XML data file, charge density, pseudopotentials, collected wavefunctions

     init_run     :     45.48s CPU     46.98s WALL (       1 calls)
     electrons    :   2088.23s CPU   2120.86s WALL (       1 calls)
     forces       :     32.85s CPU     33.73s WALL (       1 calls)
     force_dftd3  :      0.60s CPU      0.70s WALL (       1 calls)
     stress       :     94.25s CPU     95.44s WALL (       1 calls)
     stres_dftd3  :      1.20s CPU      1.30s WALL (       1 calls)

     Called by init_run:
     wfcinit      :     36.05s CPU     37.02s WALL (       1 calls)
     wfcinit:atom :      0.12s CPU      0.21s WALL (       2 calls)
     wfcinit:wfcr :     34.82s CPU     35.46s WALL (       2 calls)
     potinit      :      1.63s CPU      1.76s WALL (       1 calls)
     hinit0       :      2.88s CPU      2.96s WALL (       1 calls)

     Called by electrons:
     c_bands      :   1875.07s CPU   1902.54s WALL (      18 calls)
     sum_band     :    169.58s CPU    171.72s WALL (      18 calls)
     v_of_rho     :      9.67s CPU     10.24s WALL (      18 calls)
     v_h          :      0.41s CPU      0.46s WALL (      18 calls)
     v_xc         :     10.24s CPU     10.83s WALL (      20 calls)
     newd         :      8.95s CPU      9.13s WALL (      18 calls)
     PAW_pot      :      8.85s CPU      8.93s WALL (      18 calls)
     mix_rho      :     14.79s CPU     16.66s WALL (      18 calls)
     energy_dftd3 :      0.14s CPU      0.15s WALL (       1 calls)

     Called by c_bands:
     init_us_2    :     21.76s CPU     22.19s WALL (      78 calls)
     cegterg      :   1803.46s CPU   1830.38s WALL (      38 calls)

     Called by sum_band:
     sum_band:wei :      0.08s CPU      0.08s WALL (      18 calls)
     sum_band:loo :    151.09s CPU    152.48s WALL (      18 calls)
     sum_band:buf :      1.93s CPU      1.94s WALL (      36 calls)
     sum_band:ini :     10.02s CPU     10.19s WALL (      36 calls)
     sum_band:cal :    106.02s CPU    106.96s WALL (      36 calls)
     sum_band:bec :      0.51s CPU      0.51s WALL (      36 calls)
     addusdens    :     12.04s CPU     12.48s WALL (      18 calls)
                                        0.00s GPU  (      18 calls)
     addusd:skk   :      0.54s CPU      0.56s WALL (     108 calls)
                                        0.00s GPU  (     108 calls)

     Called by *egterg:
     cdiaghg      :     33.79s CPU     34.91s WALL (     191 calls)
     cegterg:over :    193.62s CPU    195.80s WALL (     157 calls)
     cegterg:upda :    131.86s CPU    134.51s WALL (     157 calls)
     cegterg:last :    287.58s CPU    291.14s WALL (      87 calls)
     cdiaghg:chol :      3.08s CPU      3.10s WALL (     191 calls)
     cdiaghg:inve :      0.15s CPU      0.16s WALL (     191 calls)
     cdiaghg:para :      9.89s CPU     10.53s WALL (     382 calls)
     h_psi        :    828.70s CPU    839.39s WALL (     197 calls)
     s_psi        :    299.99s CPU    303.74s WALL (     197 calls)
     g_psi        :      2.41s CPU      2.44s WALL (     157 calls)

     Called by h_psi:
     h_psi:calbec :    328.73s CPU    331.67s WALL (     197 calls)
     vloc_psi     :    195.95s CPU    197.63s WALL (     197 calls)
                                        0.00s GPU  (     197 calls)
     add_vuspsi   :    299.79s CPU    303.69s WALL (     197 calls)

     General routines
     calbec       :    533.08s CPU    537.82s WALL (     267 calls)
     fft          :     10.43s CPU     11.31s WALL (     490 calls)
     ffts         :      4.58s CPU      6.18s WALL (    2040 calls)
     fftw         :    215.92s CPU    217.74s WALL (  202370 calls)
     interpolate  :      1.14s CPU      1.20s WALL (      36 calls)

     Parallel routines

     PAW routines
     PAW_pot      :      8.85s CPU      8.93s WALL (      18 calls)

     PWSCF        :   2266.01s CPU   2304.45s WALL


   This run was terminated on:   8:54:40   2Sep2026            

=------------------------------------------------------------------------------=
   JOB DONE.
=------------------------------------------------------------------------------=
Note: The following floating-point exceptions are signalling: IEEE_UNDERFLOW_FLAG IEEE_DENORMAL
Note: The following floating-point exceptions are signalling: IEEE_UNDERFLOW_FLAG IEEE_DENORMAL
Note: The following floating-point exceptions are signalling: IEEE_UNDERFLOW_FLAG IEEE_DENORMAL
Note: The following floating-point exceptions are signalling: IEEE_UNDERFLOW_FLAG IEEE_DENORMAL
Note: The following floating-point exceptions are signalling: IEEE_UNDERFLOW_FLAG IEEE_DENORMAL
Note: The following floating-point exceptions are signalling: IEEE_UNDERFLOW_FLAG IEEE_DENORMAL
Note: The following floating-point exceptions are signalling: IEEE_UNDERFLOW_FLAG IEEE_DENORMAL
Note: The following floating-point exceptions are signalling: IEEE_UNDERFLOW_FLAG IEEE_DENORMAL
Note: The following floating-point exceptions are signalling: IEEE_UNDERFLOW_FLAG IEEE_DENORMAL
Note: The following floating-point exceptions are signalling: IEEE_UNDERFLOW_FLAG IEEE_DENORMAL
Note: The following floating-point exceptions are signalling: IEEE_UNDERFLOW_FLAG IEEE_DENORMAL
Note: The following floating-point exceptions are signalling: IEEE_UNDERFLOW_FLAG IEEE_DENORMAL
Note: The following floating-point exceptions are signalling: IEEE_UNDERFLOW_FLAG IEEE_DENORMAL
Note: The following floating-point exceptions are signalling: IEEE_UNDERFLOW_FLAG IEEE_DENORMAL
Note: The following floating-point exceptions are signalling: IEEE_UNDERFLOW_FLAG IEEE_DENORMAL
Note: The following floating-point exceptions are signalling: IEEE_UNDERFLOW_FLAG IEEE_DENORMAL
Note: The following floating-point exceptions are signalling: IEEE_UNDERFLOW_FLAG IEEE_DENORMAL
Note: The following floating-point exceptions are signalling: IEEE_UNDERFLOW_FLAG IEEE_DENORMAL
Note: The following floating-point exceptions are signalling: IEEE_UNDERFLOW_FLAG IEEE_DENORMAL
Note: The following floating-point exceptions are signalling: IEEE_UNDERFLOW_FLAG IEEE_DENORMAL
Note: The following floating-point exceptions are signalling: IEEE_UNDERFLOW_FLAG IEEE_DENORMAL
Note: The following floating-point exceptions are signalling: IEEE_UNDERFLOW_FLAG IEEE_DENORMAL
Note: The following floating-point exceptions are signalling: IEEE_UNDERFLOW_FLAG IEEE_DENORMAL
Note: The following floating-point exceptions are signalling: IEEE_UNDERFLOW_FLAG IEEE_DENORMAL
Note: The following floating-point exceptions are signalling: IEEE_UNDERFLOW_FLAG IEEE_DENORMAL
Note: The following floating-point exceptions are signalling: IEEE_UNDERFLOW_FLAG IEEE_DENORMAL
Note: The following floating-point exceptions are signalling: IEEE_UNDERFLOW_FLAG IEEE_DENORMAL
Note: The following floating-point exceptions are signalling: IEEE_UNDERFLOW_FLAG IEEE_DENORMAL
Note: The following floating-point exceptions are signalling: IEEE_UNDERFLOW_FLAG IEEE_DENORMAL
Note: The following floating-point exceptions are signalling: IEEE_UNDERFLOW_FLAG IEEE_DENORMAL
Note: The following floating-point exceptions are signalling: IEEE_UNDERFLOW_FLAG IEEE_DENORMAL
Note: The following floating-point exceptions are signalling: IEEE_UNDERFLOW_FLAG IEEE_DENORMAL
Note: The following floating-point exceptions are signalling: IEEE_UNDERFLOW_FLAG IEEE_DENORMAL
Note: The following floating-point exceptions are signalling: IEEE_UNDERFLOW_FLAG IEEE_DENORMAL
Note: The following floating-point exceptions are signalling: IEEE_UNDERFLOW_FLAG IEEE_DENORMAL
Note: The following floating-point exceptions are signalling: IEEE_UNDERFLOW_FLAG IEEE_DENORMAL
Note: The following floating-point exceptions are signalling: IEEE_UNDERFLOW_FLAG IEEE_DENORMAL
Note: The following floating-point exceptions are signalling: IEEE_UNDERFLOW_FLAG IEEE_DENORMAL
Note: The following floating-point exceptions are signalling: IEEE_UNDERFLOW_FLAG IEEE_DENORMAL
Note: The following floating-point exceptions are signalling: IEEE_UNDERFLOW_FLAG IEEE_DENORMAL
Note: The following floating-point exceptions are signalling: IEEE_UNDERFLOW_FLAG IEEE_DENORMAL
Note: The following floating-point exceptions are signalling: IEEE_UNDERFLOW_FLAG IEEE_DENORMAL
Note: The following floating-point exceptions are signalling: IEEE_UNDERFLOW_FLAG IEEE_DENORMAL
Note: The following floating-point exceptions are signalling: IEEE_UNDERFLOW_FLAG IEEE_DENORMAL
Note: The following floating-point exceptions are signalling: IEEE_UNDERFLOW_FLAG IEEE_DENORMAL
Note: The following floating-point exceptions are signalling: IEEE_UNDERFLOW_FLAG IEEE_DENORMAL
Note: The following floating-point exceptions are signalling: IEEE_UNDERFLOW_FLAG IEEE_DENORMAL
Note: The following floating-point exceptions are signalling: IEEE_UNDERFLOW_FLAG IEEE_DENORMAL
Note: The following floating-point exceptions are signalling: IEEE_UNDERFLOW_FLAG IEEE_DENORMAL
Note: The following floating-point exceptions are signalling: IEEE_UNDERFLOW_FLAG IEEE_DENORMAL
Note: The following floating-point exceptions are signalling: IEEE_UNDERFLOW_FLAG IEEE_DENORMAL
Note: The following floating-point exceptions are signalling: IEEE_UNDERFLOW_FLAG IEEE_DENORMAL
Note: The following floating-point exceptions are signalling: IEEE_UNDERFLOW_FLAG IEEE_DENORMAL
Note: The following floating-point exceptions are signalling: IEEE_UNDERFLOW_FLAG IEEE_DENORMAL
Note: The following floating-point exceptions are signalling: IEEE_UNDERFLOW_FLAG IEEE_DENORMAL
Note: The following floating-point exceptions are signalling: IEEE_UNDERFLOW_FLAG IEEE_DENORMAL
Note: The following floating-point exceptions are signalling: IEEE_UNDERFLOW_FLAG IEEE_DENORMAL
Note: The following floating-point exceptions are signalling: IEEE_UNDERFLOW_FLAG IEEE_DENORMAL
Note: The following floating-point exceptions are signalling: IEEE_UNDERFLOW_FLAG IEEE_DENORMAL
Note: The following floating-point exceptions are signalling: IEEE_UNDERFLOW_FLAG IEEE_DENORMAL
Note: The following floating-point exceptions are signalling: IEEE_UNDERFLOW_FLAG IEEE_DENORMAL
Note: The following floating-point exceptions are signalling: IEEE_UNDERFLOW_FLAG IEEE_DENORMAL
Note: The following floating-point exceptions are signalling: IEEE_UNDERFLOW_FLAG IEEE_DENORMAL
Note: The following floating-point exceptions are signalling: IEEE_UNDERFLOW_FLAG IEEE_DENORMAL
Note: The following floating-point exceptions are signalling: IEEE_UNDERFLOW_FLAG IEEE_DENORMAL
Note: The following floating-point exceptions are signalling: IEEE_UNDERFLOW_FLAG IEEE_DENORMAL
Note: The following floating-point exceptions are signalling: IEEE_UNDERFLOW_FLAG IEEE_DENORMAL
Note: The following floating-point exceptions are signalling: IEEE_UNDERFLOW_FLAG IEEE_DENORMAL
Note: The following floating-point exceptions are signalling: IEEE_UNDERFLOW_FLAG IEEE_DENORMAL
Note: The following floating-point exceptions are signalling: IEEE_UNDERFLOW_FLAG IEEE_DENORMAL
Note: The following floating-point exceptions are signalling: IEEE_UNDERFLOW_FLAG IEEE_DENORMAL
Note: The following floating-point exceptions are signalling: IEEE_UNDERFLOW_FLAG IEEE_DENORMAL
Note: The following floating-point exceptions are signalling: IEEE_UNDERFLOW_FLAG IEEE_DENORMAL
Note: The following floating-point exceptions are signalling: IEEE_UNDERFLOW_FLAG IEEE_DENORMAL
Note: The following floating-point exceptions are signalling: IEEE_UNDERFLOW_FLAG IEEE_DENORMAL
Note: The following floating-point exceptions are signalling: IEEE_UNDERFLOW_FLAG IEEE_DENORMAL
Note: The following floating-point exceptions are signalling: IEEE_UNDERFLOW_FLAG IEEE_DENORMAL
Note: The following floating-point exceptions are signalling: IEEE_UNDERFLOW_FLAG IEEE_DENORMAL
Note: The following floating-point exceptions are signalling: IEEE_UNDERFLOW_FLAG IEEE_DENORMAL
Note: The following floating-point exceptions are signalling: IEEE_UNDERFLOW_FLAG IEEE_DENORMAL
Note: The following floating-point exceptions are signalling: IEEE_UNDERFLOW_FLAG IEEE_DENORMAL
Note: The following floating-point exceptions are signalling: IEEE_UNDERFLOW_FLAG IEEE_DENORMAL
Note: The following floating-point exceptions are signalling: IEEE_UNDERFLOW_FLAG IEEE_DENORMAL
Note: The following floating-point exceptions are signalling: IEEE_UNDERFLOW_FLAG IEEE_DENORMAL
Note: The following floating-point exceptions are signalling: IEEE_UNDERFLOW_FLAG IEEE_DENORMAL
Note: The following floating-point exceptions are signalling: IEEE_UNDERFLOW_FLAG IEEE_DENORMAL
Note: The following floating-point exceptions are signalling: IEEE_UNDERFLOW_FLAG IEEE_DENORMAL
Note: The following floating-point exceptions are signalling: IEEE_UNDERFLOW_FLAG IEEE_DENORMAL
Note: The following floating-point exceptions are signalling: IEEE_UNDERFLOW_FLAG IEEE_DENORMAL
Note: The following floating-point exceptions are signalling: IEEE_UNDERFLOW_FLAG IEEE_DENORMAL
Note: The following floating-point exceptions are signalling: IEEE_UNDERFLOW_FLAG IEEE_DENORMAL
Note: The following floating-point exceptions are signalling: IEEE_UNDERFLOW_FLAG IEEE_DENORMAL
Note: The following floating-point exceptions are signalling: IEEE_UNDERFLOW_FLAG IEEE_DENORMAL
Note: The following floating-point exceptions are signalling: IEEE_UNDERFLOW_FLAG IEEE_DENORMAL
Note: The following floating-point exceptions are signalling: IEEE_UNDERFLOW_FLAG IEEE_DENORMAL
Note: The following floating-point exceptions are signalling: IEEE_UNDERFLOW_FLAG IEEE_DENORMAL
Note: The following floating-point exceptions are signalling: IEEE_UNDERFLOW_FLAG IEEE_DENORMAL
Note: The following floating-point exceptions are signalling: IEEE_UNDERFLOW_FLAG IEEE_DENORMAL
Note: The following floating-point exceptions are signalling: IEEE_UNDERFLOW_FLAG IEEE_DENORMAL
Note: The following floating-point exceptions are signalling: IEEE_UNDERFLOW_FLAG IEEE_DENORMAL
Note: The following floating-point exceptions are signalling: IEEE_UNDERFLOW_FLAG IEEE_DENORMAL
Note: The following floating-point exceptions are signalling: IEEE_UNDERFLOW_FLAG IEEE_DENORMAL
Note: The following floating-point exceptions are signalling: IEEE_UNDERFLOW_FLAG IEEE_DENORMAL
Note: The following floating-point exceptions are signalling: IEEE_UNDERFLOW_FLAG IEEE_DENORMAL
Note: The following floating-point exceptions are signalling: IEEE_UNDERFLOW_FLAG IEEE_DENORMAL
Note: The following floating-point exceptions are signalling: IEEE_UNDERFLOW_FLAG IEEE_DENORMAL
Note: The following floating-point exceptions are signalling: IEEE_UNDERFLOW_FLAG IEEE_DENORMAL
Note: The following floating-point exceptions are signalling: IEEE_UNDERFLOW_FLAG IEEE_DENORMAL
Note: The following floating-point exceptions are signalling: IEEE_UNDERFLOW_FLAG IEEE_DENORMAL
Note: The following floating-point exceptions are signalling: IEEE_UNDERFLOW_FLAG IEEE_DENORMAL
Note: The following floating-point exceptions are signalling: IEEE_UNDERFLOW_FLAG IEEE_DENORMAL
Note: The following floating-point exceptions are signalling: IEEE_UNDERFLOW_FLAG IEEE_DENORMAL
Note: The following floating-point exceptions are signalling: IEEE_UNDERFLOW_FLAG IEEE_DENORMAL
Note: The following floating-point exceptions are signalling: IEEE_UNDERFLOW_FLAG IEEE_DENORMAL
Note: The following floating-point exceptions are signalling: IEEE_UNDERFLOW_FLAG IEEE_DENORMAL
Note: The following floating-point exceptions are signalling: IEEE_UNDERFLOW_FLAG IEEE_DENORMAL
Note: The following floating-point exceptions are signalling: IEEE_UNDERFLOW_FLAG IEEE_DENORMAL
Note: The following floating-point exceptions are signalling: IEEE_UNDERFLOW_FLAG IEEE_DENORMAL
Note: The following floating-point exceptions are signalling: IEEE_UNDERFLOW_FLAG IEEE_DENORMAL
Note: The following floating-point exceptions are signalling: IEEE_UNDERFLOW_FLAG IEEE_DENORMAL
Note: The following floating-point exceptions are signalling: IEEE_UNDERFLOW_FLAG IEEE_DENORMAL
Note: The following floating-point exceptions are signalling: IEEE_UNDERFLOW_FLAG IEEE_DENORMAL
Note: The following floating-point exceptions are signalling: IEEE_UNDERFLOW_FLAG IEEE_DENORMAL
Note: The following floating-point exceptions are signalling: IEEE_UNDERFLOW_FLAG IEEE_DENORMAL
Note: The following floating-point exceptions are signalling: IEEE_UNDERFLOW_FLAG IEEE_DENORMAL
Note: The following floating-point exceptions are signalling: IEEE_UNDERFLOW_FLAG IEEE_DENORMAL
Note: The following floating-point exceptions are signalling: IEEE_UNDERFLOW_FLAG IEEE_DENORMAL
Note: The following floating-point exceptions are signalling: IEEE_UNDERFLOW_FLAG IEEE_DENORMAL
Note: The following floating-point exceptions are signalling: IEEE_UNDERFLOW_FLAG IEEE_DENORMAL
Note: The following floating-point exceptions are signalling: IEEE_UNDERFLOW_FLAG IEEE_DENORMAL
Note: The following floating-point exceptions are signalling: IEEE_UNDERFLOW_FLAG IEEE_DENORMAL
Note: The following floating-point exceptions are signalling: IEEE_UNDERFLOW_FLAG IEEE_DENORMAL
Note: The following floating-point exceptions are signalling: IEEE_UNDERFLOW_FLAG IEEE_DENORMAL
Note: The following floating-point exceptions are signalling: IEEE_UNDERFLOW_FLAG IEEE_DENORMAL
Note: The following floating-point exceptions are signalling: IEEE_UNDERFLOW_FLAG IEEE_DENORMAL
Note: The following floating-point exceptions are signalling: IEEE_UNDERFLOW_FLAG IEEE_DENORMAL
Note: The following floating-point exceptions are signalling: IEEE_UNDERFLOW_FLAG IEEE_DENORMAL
Note: The following floating-point exceptions are signalling: IEEE_UNDERFLOW_FLAG IEEE_DENORMAL
Note: The following floating-point exceptions are signalling: IEEE_UNDERFLOW_FLAG IEEE_DENORMAL
Note: The following floating-point exceptions are signalling: IEEE_UNDERFLOW_FLAG IEEE_DENORMAL
Note: The following floating-point exceptions are signalling: IEEE_UNDERFLOW_FLAG IEEE_DENORMAL
Note: The following floating-point exceptions are signalling: IEEE_UNDERFLOW_FLAG IEEE_DENORMAL
Note: The following floating-point exceptions are signalling: IEEE_UNDERFLOW_FLAG IEEE_DENORMAL
Note: The following floating-point exceptions are signalling: IEEE_UNDERFLOW_FLAG IEEE_DENORMAL
Note: The following floating-point exceptions are signalling: IEEE_UNDERFLOW_FLAG IEEE_DENORMAL
Note: The following floating-point exceptions are signalling: IEEE_UNDERFLOW_FLAG IEEE_DENORMAL
Note: The following floating-point exceptions are signalling: IEEE_UNDERFLOW_FLAG IEEE_DENORMAL
Note: The following floating-point exceptions are signalling: IEEE_UNDERFLOW_FLAG IEEE_DENORMAL
Note: The following floating-point exceptions are signalling: IEEE_UNDERFLOW_FLAG IEEE_DENORMAL
Note: The following floating-point exceptions are signalling: IEEE_UNDERFLOW_FLAG IEEE_DENORMAL
Note: The following floating-point exceptions are signalling: IEEE_UNDERFLOW_FLAG IEEE_DENORMAL
Note: The following floating-point exceptions are signalling: IEEE_UNDERFLOW_FLAG IEEE_DENORMAL
Note: The following floating-point exceptions are signalling: IEEE_UNDERFLOW_FLAG IEEE_DENORMAL
Note: The following floating-point exceptions are signalling: IEEE_UNDERFLOW_FLAG IEEE_DENORMAL
Note: The following floating-point exceptions are signalling: IEEE_UNDERFLOW_FLAG IEEE_DENORMAL
Note: The following floating-point exceptions are signalling: IEEE_UNDERFLOW_FLAG IEEE_DENORMAL
Note: The following floating-point exceptions are signalling: IEEE_UNDERFLOW_FLAG IEEE_DENORMAL
Note: The following floating-point exceptions are signalling: IEEE_UNDERFLOW_FLAG IEEE_DENORMAL
Note: The following floating-point exceptions are signalling: IEEE_UNDERFLOW_FLAG IEEE_DENORMAL
Note: The following floating-point exceptions are signalling: IEEE_UNDERFLOW_FLAG IEEE_DENORMAL
Note: The following floating-point exceptions are signalling: IEEE_UNDERFLOW_FLAG IEEE_DENORMAL
Note: The following floating-point exceptions are signalling: IEEE_UNDERFLOW_FLAG IEEE_DENORMAL
Note: The following floating-point exceptions are signalling: IEEE_UNDERFLOW_FLAG IEEE_DENORMAL
Note: The following floating-point exceptions are signalling: IEEE_UNDERFLOW_FLAG IEEE_DENORMAL
Note: The following floating-point exceptions are signalling: IEEE_UNDERFLOW_FLAG IEEE_DENORMAL
Note: The following floating-point exceptions are signalling: IEEE_UNDERFLOW_FLAG IEEE_DENORMAL
Note: The following floating-point exceptions are signalling: IEEE_UNDERFLOW_FLAG IEEE_DENORMAL
Note: The following floating-point exceptions are signalling: IEEE_UNDERFLOW_FLAG IEEE_DENORMAL
Note: The following floating-point exceptions are signalling: IEEE_UNDERFLOW_FLAG IEEE_DENORMAL
Note: The following floating-point exceptions are signalling: IEEE_UNDERFLOW_FLAG IEEE_DENORMAL
Note: The following floating-point exceptions are signalling: IEEE_UNDERFLOW_FLAG IEEE_DENORMAL
Note: The following floating-point exceptions are signalling: IEEE_UNDERFLOW_FLAG IEEE_DENORMAL
Note: The following floating-point exceptions are signalling: IEEE_UNDERFLOW_FLAG IEEE_DENORMAL
Note: The following floating-point exceptions are signalling: IEEE_UNDERFLOW_FLAG IEEE_DENORMAL
Note: The following floating-point exceptions are signalling: IEEE_UNDERFLOW_FLAG IEEE_DENORMAL
Note: The following floating-point exceptions are signalling: IEEE_UNDERFLOW_FLAG IEEE_DENORMAL
Note: The following floating-point exceptions are signalling: IEEE_UNDERFLOW_FLAG IEEE_DENORMAL
Note: The following floating-point exceptions are signalling: IEEE_UNDERFLOW_FLAG IEEE_DENORMAL
Note: The following floating-point exceptions are signalling: IEEE_UNDERFLOW_FLAG IEEE_DENORMAL
Note: The following floating-point exceptions are signalling: IEEE_UNDERFLOW_FLAG IEEE_DENORMAL
Note: The following floating-point exceptions are signalling: IEEE_UNDERFLOW_FLAG IEEE_DENORMAL
Note: The following floating-point exceptions are signalling: IEEE_UNDERFLOW_FLAG IEEE_DENORMAL
Note: The following floating-point exceptions are signalling: IEEE_UNDERFLOW_FLAG IEEE_DENORMAL
Note: The following floating-point exceptions are signalling: IEEE_UNDERFLOW_FLAG IEEE_DENORMAL
Note: The following floating-point exceptions are signalling: IEEE_UNDERFLOW_FLAG IEEE_DENORMAL
Note: The following floating-point exceptions are signalling: IEEE_UNDERFLOW_FLAG IEEE_DENORMAL
Note: The following floating-point exceptions are signalling: IEEE_UNDERFLOW_FLAG IEEE_DENORMAL
Note: The following floating-point exceptions are signalling: IEEE_UNDERFLOW_FLAG IEEE_DENORMAL
Note: The following floating-point exceptions are signalling: IEEE_UNDERFLOW_FLAG IEEE_DENORMAL
Note: The following floating-point exceptions are signalling: IEEE_UNDERFLOW_FLAG IEEE_DENORMAL
Note: The following floating-point exceptions are signalling: IEEE_UNDERFLOW_FLAG IEEE_DENORMAL
Note: The following floating-point exceptions are signalling: IEEE_UNDERFLOW_FLAG IEEE_DENORMAL
Note: The following floating-point exceptions are signalling: IEEE_UNDERFLOW_FLAG IEEE_DENORMAL
Note: The following floating-point exceptions are signalling: IEEE_UNDERFLOW_FLAG IEEE_DENORMAL
Note: The following floating-point exceptions are signalling: IEEE_UNDERFLOW_FLAG IEEE_DENORMAL
Note: The following floating-point exceptions are signalling: IEEE_UNDERFLOW_FLAG IEEE_DENORMAL
Note: The following floating-point exceptions are signalling: IEEE_UNDERFLOW_FLAG IEEE_DENORMAL
Note: The following floating-point exceptions are signalling: IEEE_UNDERFLOW_FLAG IEEE_DENORMAL
Note: The following floating-point exceptions are signalling: IEEE_UNDERFLOW_FLAG IEEE_DENORMAL
Note: The following floating-point exceptions are signalling: IEEE_UNDERFLOW_FLAG IEEE_DENORMAL
Note: The following floating-point exceptions are signalling: IEEE_UNDERFLOW_FLAG IEEE_DENORMAL
Note: The following floating-point exceptions are signalling: IEEE_UNDERFLOW_FLAG IEEE_DENORMAL
Note: The following floating-point exceptions are signalling: IEEE_UNDERFLOW_FLAG IEEE_DENORMAL
Note: The following floating-point exceptions are signalling: IEEE_UNDERFLOW_FLAG IEEE_DENORMAL
Note: The following floating-point exceptions are signalling: IEEE_UNDERFLOW_FLAG IEEE_DENORMAL
Note: The following floating-point exceptions are signalling: IEEE_UNDERFLOW_FLAG IEEE_DENORMAL
Note: The following floating-point exceptions are signalling: IEEE_UNDERFLOW_FLAG IEEE_DENORMAL
Note: The following floating-point exceptions are signalling: IEEE_UNDERFLOW_FLAG IEEE_DENORMAL
Note: The following floating-point exceptions are signalling: IEEE_UNDERFLOW_FLAG IEEE_DENORMAL
Note: The following floating-point exceptions are signalling: IEEE_UNDERFLOW_FLAG IEEE_DENORMAL
Note: The following floating-point exceptions are signalling: IEEE_UNDERFLOW_FLAG IEEE_DENORMAL
Note: The following floating-point exceptions are signalling: IEEE_UNDERFLOW_FLAG IEEE_DENORMAL
Note: The following floating-point exceptions are signalling: IEEE_UNDERFLOW_FLAG IEEE_DENORMAL
Note: The following floating-point exceptions are signalling: IEEE_UNDERFLOW_FLAG IEEE_DENORMAL
Note: The following floating-point exceptions are signalling: IEEE_UNDERFLOW_FLAG IEEE_DENORMAL
Note: The following floating-point exceptions are signalling: IEEE_UNDERFLOW_FLAG IEEE_DENORMAL
Note: The following floating-point exceptions are signalling: IEEE_UNDERFLOW_FLAG IEEE_DENORMAL
Note: The following floating-point exceptions are signalling: IEEE_UNDERFLOW_FLAG IEEE_DENORMAL
Note: The following floating-point exceptions are signalling: IEEE_UNDERFLOW_FLAG IEEE_DENORMAL
Note: The following floating-point exceptions are signalling: IEEE_UNDERFLOW_FLAG IEEE_DENORMAL
Note: The following floating-point exceptions are signalling: IEEE_UNDERFLOW_FLAG IEEE_DENORMAL
Note: The following floating-point exceptions are signalling: IEEE_UNDERFLOW_FLAG IEEE_DENORMAL
Note: The following floating-point exceptions are signalling: IEEE_UNDERFLOW_FLAG IEEE_DENORMAL
Note: The following floating-point exceptions are signalling: IEEE_UNDERFLOW_FLAG IEEE_DENORMAL
Note: The following floating-point exceptions are signalling: IEEE_UNDERFLOW_FLAG IEEE_DENORMAL
Note: The following floating-point exceptions are signalling: IEEE_UNDERFLOW_FLAG IEEE_DENORMAL
Note: The following floating-point exceptions are signalling: IEEE_UNDERFLOW_FLAG IEEE_DENORMAL
Note: The following floating-point exceptions are signalling: IEEE_UNDERFLOW_FLAG IEEE_DENORMAL
Note: The following floating-point exceptions are signalling: IEEE_UNDERFLOW_FLAG IEEE_DENORMAL
Note: The following floating-point exceptions are signalling: IEEE_UNDERFLOW_FLAG IEEE_DENORMAL
Note: The following floating-point exceptions are signalling: IEEE_UNDERFLOW_FLAG IEEE_DENORMAL
Note: The following floating-point exceptions are signalling: IEEE_UNDERFLOW_FLAG IEEE_DENORMAL
Note: The following floating-point exceptions are signalling: IEEE_UNDERFLOW_FLAG IEEE_DENORMAL
Note: The following floating-point exceptions are signalling: IEEE_UNDERFLOW_FLAG IEEE_DENORMAL
Note: The following floating-point exceptions are signalling: IEEE_UNDERFLOW_FLAG IEEE_DENORMAL
Note: The following floating-point exceptions are signalling: IEEE_UNDERFLOW_FLAG IEEE_DENORMAL
Note: The following floating-point exceptions are signalling: IEEE_UNDERFLOW_FLAG IEEE_DENORMAL
Note: The following floating-point exceptions are signalling: IEEE_UNDERFLOW_FLAG IEEE_DENORMAL
Note: The following floating-point exceptions are signalling: IEEE_UNDERFLOW_FLAG IEEE_DENORMAL
Note: The following floating-point exceptions are signalling: IEEE_UNDERFLOW_FLAG IEEE_DENORMAL
Note: The following floating-point exceptions are signalling: IEEE_UNDERFLOW_FLAG IEEE_DENORMAL
Note: The following floating-point exceptions are signalling: IEEE_UNDERFLOW_FLAG IEEE_DENORMAL
Note: The following floating-point exceptions are signalling: IEEE_UNDERFLOW_FLAG IEEE_DENORMAL
Note: The following floating-point exceptions are signalling: IEEE_UNDERFLOW_FLAG IEEE_DENORMAL
Note: The following floating-point exceptions are signalling: IEEE_UNDERFLOW_FLAG IEEE_DENORMAL
Note: The following floating-point exceptions are signalling: IEEE_UNDERFLOW_FLAG IEEE_DENORMAL
Note: The following floating-point exceptions are signalling: IEEE_UNDERFLOW_FLAG IEEE_DENORMAL
Note: The following floating-point exceptions are signalling: IEEE_UNDERFLOW_FLAG IEEE_DENORMAL
Note: The following floating-point exceptions are signalling: IEEE_UNDERFLOW_FLAG IEEE_DENORMAL
Note: The following floating-point exceptions are signalling: IEEE_UNDERFLOW_FLAG IEEE_DENORMAL
Note: The following floating-point exceptions are signalling: IEEE_UNDERFLOW_FLAG IEEE_DENORMAL
Note: The following floating-point exceptions are signalling: IEEE_UNDERFLOW_FLAG IEEE_DENORMAL
Note: The following floating-point exceptions are signalling: IEEE_UNDERFLOW_FLAG IEEE_DENORMAL
Note: The following floating-point exceptions are signalling: IEEE_UNDERFLOW_FLAG IEEE_DENORMAL
Note: The following floating-point exceptions are signalling: IEEE_UNDERFLOW_FLAG IEEE_DENORMAL
Note: The following floating-point exceptions are signalling: IEEE_UNDERFLOW_FLAG IEEE_DENORMAL
Note: The following floating-point exceptions are signalling: IEEE_UNDERFLOW_FLAG IEEE_DENORMAL
Note: The following floating-point exceptions are signalling: IEEE_UNDERFLOW_FLAG IEEE_DENORMAL
Note: The following floating-point exceptions are signalling: IEEE_UNDERFLOW_FLAG IEEE_DENORMAL
Note: The following floating-point exceptions are signalling: IEEE_UNDERFLOW_FLAG IEEE_DENORMAL
Note: The following floating-point exceptions are signalling: IEEE_UNDERFLOW_FLAG IEEE_DENORMAL
Note: The following floating-point exceptions are signalling: IEEE_UNDERFLOW_FLAG IEEE_DENORMAL
Note: The following floating-point exceptions are signalling: IEEE_UNDERFLOW_FLAG IEEE_DENORMAL
Note: The following floating-point exceptions are signalling: IEEE_UNDERFLOW_FLAG IEEE_DENORMAL
Note: The following floating-point exceptions are signalling: IEEE_UNDERFLOW_FLAG IEEE_DENORMAL
Note: The following floating-point exceptions are signalling: IEEE_UNDERFLOW_FLAG IEEE_DENORMAL
Note: The following floating-point exceptions are signalling: IEEE_UNDERFLOW_FLAG IEEE_DENORMAL
Note: The following floating-point exceptions are signalling: IEEE_UNDERFLOW_FLAG IEEE_DENORMAL
Note: The following floating-point exceptions are signalling: IEEE_UNDERFLOW_FLAG IEEE_DENORMAL
Note: The following floating-point exceptions are signalling: IEEE_UNDERFLOW_FLAG IEEE_DENORMAL
Note: The following floating-point exceptions are signalling: IEEE_UNDERFLOW_FLAG IEEE_DENORMAL
Note: The following floating-point exceptions are signalling: IEEE_UNDERFLOW_FLAG IEEE_DENORMAL
Note: The following floating-point exceptions are signalling: IEEE_UNDERFLOW_FLAG IEEE_DENORMAL
Note: The following floating-point exceptions are signalling: IEEE_UNDERFLOW_FLAG IEEE_DENORMAL
Note: The following floating-point exceptions are signalling: IEEE_UNDERFLOW_FLAG IEEE_DENORMAL
Note: The following floating-point exceptions are signalling: IEEE_UNDERFLOW_FLAG IEEE_DENORMAL
Note: The following floating-point exceptions are signalling: IEEE_UNDERFLOW_FLAG IEEE_DENORMAL
Note: The following floating-point exceptions are signalling: IEEE_UNDERFLOW_FLAG IEEE_DENORMAL
Note: The following floating-point exceptions are signalling: IEEE_UNDERFLOW_FLAG IEEE_DENORMAL
Note: The following floating-point exceptions are signalling: IEEE_UNDERFLOW_FLAG IEEE_DENORMAL
Note: The following floating-point exceptions are signalling: IEEE_UNDERFLOW_FLAG IEEE_DENORMAL
Note: The following floating-point exceptions are signalling: IEEE_UNDERFLOW_FLAG IEEE_DENORMAL
Note: The following floating-point exceptions are signalling: IEEE_UNDERFLOW_FLAG IEEE_DENORMAL
Note: The following floating-point exceptions are signalling: IEEE_UNDERFLOW_FLAG IEEE_DENORMAL
Note: The following floating-point exceptions are signalling: IEEE_UNDERFLOW_FLAG IEEE_DENORMAL
Note: The following floating-point exceptions are signalling: IEEE_UNDERFLOW_FLAG IEEE_DENORMAL
Note: The following floating-point exceptions are signalling: IEEE_UNDERFLOW_FLAG IEEE_DENORMAL
Note: The following floating-point exceptions are signalling: IEEE_UNDERFLOW_FLAG IEEE_DENORMAL
Note: The following floating-point exceptions are signalling: IEEE_UNDERFLOW_FLAG IEEE_DENORMAL
Note: The following floating-point exceptions are signalling: IEEE_UNDERFLOW_FLAG IEEE_DENORMAL
Note: The following floating-point exceptions are signalling: IEEE_UNDERFLOW_FLAG IEEE_DENORMAL
Note: The following floating-point exceptions are signalling: IEEE_UNDERFLOW_FLAG IEEE_DENORMAL
Note: The following floating-point exceptions are signalling: IEEE_UNDERFLOW_FLAG IEEE_DENORMAL
Note: The following floating-point exceptions are signalling: IEEE_UNDERFLOW_FLAG IEEE_DENORMAL
Note: The following floating-point exceptions are signalling: IEEE_UNDERFLOW_FLAG IEEE_DENORMAL
Note: The following floating-point exceptions are signalling: IEEE_UNDERFLOW_FLAG IEEE_DENORMAL
Note: The following floating-point exceptions are signalling: IEEE_UNDERFLOW_FLAG IEEE_DENORMAL
Note: The following floating-point exceptions are signalling: IEEE_UNDERFLOW_FLAG IEEE_DENORMAL
Note: The following floating-point exceptions are signalling: IEEE_UNDERFLOW_FLAG IEEE_DENORMAL
Note: The following floating-point exceptions are signalling: IEEE_UNDERFLOW_FLAG IEEE_DENORMAL
Note: The following floating-point exceptions are signalling: IEEE_UNDERFLOW_FLAG IEEE_DENORMAL
Note: The following floating-point exceptions are signalling: IEEE_UNDERFLOW_FLAG IEEE_DENORMAL
Note: The following floating-point exceptions are signalling: IEEE_UNDERFLOW_FLAG IEEE_DENORMAL
Note: The following floating-point exceptions are signalling: IEEE_UNDERFLOW_FLAG IEEE_DENORMAL
Note: The following floating-point exceptions are signalling: IEEE_UNDERFLOW_FLAG IEEE_DENORMAL
Note: The following floating-point exceptions are signalling: IEEE_UNDERFLOW_FLAG IEEE_DENORMAL
Note: The following floating-point exceptions are signalling: IEEE_UNDERFLOW_FLAG IEEE_DENORMAL
Note: The following floating-point exceptions are signalling: IEEE_UNDERFLOW_FLAG IEEE_DENORMAL
Note: The following floating-point exceptions are signalling: IEEE_UNDERFLOW_FLAG IEEE_DENORMAL
Note: The following floating-point exceptions are signalling: IEEE_UNDERFLOW_FLAG IEEE_DENORMAL
Note: The following floating-point exceptions are signalling: IEEE_UNDERFLOW_FLAG IEEE_DENORMAL
Note: The following floating-point exceptions are signalling: IEEE_UNDERFLOW_FLAG IEEE_DENORMAL
Note: The following floating-point exceptions are signalling: IEEE_UNDERFLOW_FLAG IEEE_DENORMAL
Note: The following floating-point exceptions are signalling: IEEE_UNDERFLOW_FLAG IEEE_DENORMAL
Note: The following floating-point exceptions are signalling: IEEE_UNDERFLOW_FLAG IEEE_DENORMAL
Note: The following floating-point exceptions are signalling: IEEE_UNDERFLOW_FLAG IEEE_DENORMAL
Note: The following floating-point exceptions are signalling: IEEE_UNDERFLOW_FLAG IEEE_DENORMAL
Note: The following floating-point exceptions are signalling: IEEE_UNDERFLOW_FLAG IEEE_DENORMAL
Note: The following floating-point exceptions are signalling: IEEE_UNDERFLOW_FLAG IEEE_DENORMAL
Note: The following floating-point exceptions are signalling: IEEE_UNDERFLOW_FLAG IEEE_DENORMAL
Note: The following floating-point exceptions are signalling: IEEE_UNDERFLOW_FLAG IEEE_DENORMAL
Note: The following floating-point exceptions are signalling: IEEE_UNDERFLOW_FLAG IEEE_DENORMAL
Note: The following floating-point exceptions are signalling: IEEE_UNDERFLOW_FLAG IEEE_DENORMAL
Note: The following floating-point exceptions are signalling: IEEE_UNDERFLOW_FLAG IEEE_DENORMAL
Note: The following floating-point exceptions are signalling: IEEE_UNDERFLOW_FLAG IEEE_DENORMAL
Note: The following floating-point exceptions are signalling: IEEE_UNDERFLOW_FLAG IEEE_DENORMAL
Note: The following floating-point exceptions are signalling: IEEE_UNDERFLOW_FLAG IEEE_DENORMAL
Note: The following floating-point exceptions are signalling: IEEE_UNDERFLOW_FLAG IEEE_DENORMAL
Note: The following floating-point exceptions are signalling: IEEE_UNDERFLOW_FLAG IEEE_DENORMAL
Note: The following floating-point exceptions are signalling: IEEE_UNDERFLOW_FLAG IEEE_DENORMAL
Note: The following floating-point exceptions are signalling: IEEE_UNDERFLOW_FLAG IEEE_DENORMAL
Note: The following floating-point exceptions are signalling: IEEE_UNDERFLOW_FLAG IEEE_DENORMAL
Note: The following floating-point exceptions are signalling: IEEE_UNDERFLOW_FLAG IEEE_DENORMAL
Note: The following floating-point exceptions are signalling: IEEE_UNDERFLOW_FLAG IEEE_DENORMAL
Note: The following floating-point exceptions are signalling: IEEE_UNDERFLOW_FLAG IEEE_DENORMAL
Note: The following floating-point exceptions are signalling: IEEE_UNDERFLOW_FLAG IEEE_DENORMAL
Note: The following floating-point exceptions are signalling: IEEE_UNDERFLOW_FLAG IEEE_DENORMAL
Note: The following floating-point exceptions are signalling: IEEE_UNDERFLOW_FLAG IEEE_DENORMAL
Note: The following floating-point exceptions are signalling: IEEE_UNDERFLOW_FLAG IEEE_DENORMAL
Note: The following floating-point exceptions are signalling: IEEE_UNDERFLOW_FLAG IEEE_DENORMAL
Note: The following floating-point exceptions are signalling: IEEE_UNDERFLOW_FLAG IEEE_DENORMAL
Note: The following floating-point exceptions are signalling: IEEE_UNDERFLOW_FLAG IEEE_DENORMAL
Note: The following floating-point exceptions are signalling: IEEE_UNDERFLOW_FLAG IEEE_DENORMAL
Note: The following floating-point exceptions are signalling: IEEE_UNDERFLOW_FLAG IEEE_DENORMAL
Note: The following floating-point exceptions are signalling: IEEE_UNDERFLOW_FLAG IEEE_DENORMAL
Note: The following floating-point exceptions are signalling: IEEE_UNDERFLOW_FLAG IEEE_DENORMAL
Note: The following floating-point exceptions are signalling: IEEE_UNDERFLOW_FLAG IEEE_DENORMAL
Note: The following floating-point exceptions are signalling: IEEE_UNDERFLOW_FLAG IEEE_DENORMAL
Note: The following floating-point exceptions are signalling: IEEE_UNDERFLOW_FLAG IEEE_DENORMAL
Note: The following floating-point exceptions are signalling: IEEE_UNDERFLOW_FLAG IEEE_DENORMAL
Note: The following floating-point exceptions are signalling: IEEE_UNDERFLOW_FLAG IEEE_DENORMAL
Note: The following floating-point exceptions are signalling: IEEE_UNDERFLOW_FLAG IEEE_DENORMAL
Note: The following floating-point exceptions are signalling: IEEE_UNDERFLOW_FLAG IEEE_DENORMAL
Note: The following floating-point exceptions are signalling: IEEE_UNDERFLOW_FLAG IEEE_DENORMAL
Note: The following floating-point exceptions are signalling: IEEE_UNDERFLOW_FLAG IEEE_DENORMAL
Note: The following floating-point exceptions are signalling: IEEE_UNDERFLOW_FLAG IEEE_DENORMAL
Note: The following floating-point exceptions are signalling: IEEE_UNDERFLOW_FLAG IEEE_DENORMAL
Note: The following floating-point exceptions are signalling: IEEE_UNDERFLOW_FLAG IEEE_DENORMAL
Note: The following floating-point exceptions are signalling: IEEE_UNDERFLOW_FLAG IEEE_DENORMAL
Note: The following floating-point exceptions are signalling: IEEE_UNDERFLOW_FLAG IEEE_DENORMAL
Note: The following floating-point exceptions are signalling: IEEE_UNDERFLOW_FLAG IEEE_DENORMAL
Note: The following floating-point exceptions are signalling: IEEE_UNDERFLOW_FLAG IEEE_DENORMAL
Note: The following floating-point exceptions are signalling: IEEE_UNDERFLOW_FLAG IEEE_DENORMAL
Note: The following floating-point exceptions are signalling: IEEE_UNDERFLOW_FLAG IEEE_DENORMAL
Note: The following floating-point exceptions are signalling: IEEE_UNDERFLOW_FLAG IEEE_DENORMAL
Note: The following floating-point exceptions are signalling: IEEE_UNDERFLOW_FLAG IEEE_DENORMAL
Note: The following floating-point exceptions are signalling: IEEE_UNDERFLOW_FLAG IEEE_DENORMAL
Note: The following floating-point exceptions are signalling: IEEE_UNDERFLOW_FLAG IEEE_DENORMAL
Note: The following floating-point exceptions are signalling: IEEE_UNDERFLOW_FLAG IEEE_DENORMAL
Note: The following floating-point exceptions are signalling: IEEE_UNDERFLOW_FLAG IEEE_DENORMAL
Note: The following floating-point exceptions are signalling: IEEE_UNDERFLOW_FLAG IEEE_DENORMAL
Note: The following floating-point exceptions are signalling: IEEE_UNDERFLOW_FLAG IEEE_DENORMAL
Note: The following floating-point exceptions are signalling: IEEE_UNDERFLOW_FLAG IEEE_DENORMAL
Note: The following floating-point exceptions are signalling: IEEE_UNDERFLOW_FLAG IEEE_DENORMAL
Note: The following floating-point exceptions are signalling: IEEE_UNDERFLOW_FLAG IEEE_DENORMAL
Note: The following floating-point exceptions are signalling: IEEE_UNDERFLOW_FLAG IEEE_DENORMAL
Note: The following floating-point exceptions are signalling: IEEE_UNDERFLOW_FLAG IEEE_DENORMAL
Note: The following floating-point exceptions are signalling: IEEE_UNDERFLOW_FLAG IEEE_DENORMAL
Note: The following floating-point exceptions are signalling: IEEE_UNDERFLOW_FLAG IEEE_DENORMAL
Note: The following floating-point exceptions are signalling: IEEE_UNDERFLOW_FLAG IEEE_DENORMAL
Note: The following floating-point exceptions are signalling: IEEE_UNDERFLOW_FLAG IEEE_DENORMAL
Note: The following floating-point exceptions are signalling: IEEE_UNDERFLOW_FLAG IEEE_DENORMAL
Note: The following floating-point exceptions are signalling: IEEE_UNDERFLOW_FLAG IEEE_DENORMAL
Note: The following floating-point exceptions are signalling: IEEE_UNDERFLOW_FLAG IEEE_DENORMAL
