
     Program PWSCF v.7.5 starts on 31Aug2026 at 16:30:43 

     This program is part of the open-source Quantum ESPRESSO suite
     for quantum simulation of materials; please cite
         "P. Giannozzi et al., J. Phys.:Condens. Matter 21 395502 (2009);
         "P. Giannozzi et al., J. Phys.:Condens. Matter 29 465901 (2017);
         "P. Giannozzi et al., J. Chem. Phys. 152 154105 (2020);
          URL http://www.quantum-espresso.org", 
     in publications or presentations arising from this work. More details at
     http://www.quantum-espresso.org/quote

     Parallel version (MPI & OpenMP), running on     384 processor cores
     Number of MPI processes:               384
     Threads/MPI process:                     1

     MPI processes distributed on     2 nodes
     324868 MiB available memory on the printing compute node when the environment starts

     Reading input from inputs_runtime/uncapped_k3_attempt1.in

     Current dimensions of program PWSCF are:
     Max number of different atomic species (ntypx) = 10
     Max number of k-points (npk) =  40000
     Max angular momentum in pseudopotentials (lmaxx) =  4
     file Al.pbe-n-kjpaw_psl.1.0.0.UPF: wavefunction(s)  3S 3P renormalized
     file O.pbe-n-kjpaw_psl.0.1.UPF: wavefunction(s)  2P renormalized
     file Nb.pbe-spn-kjpaw_psl.0.3.0.UPF: wavefunction(s)  4S 4P renormalized

     K-points division:     npool     =       6
     R & G space division:  proc/nbgrp/npool/nimage =      64
     Subspace diagonalization in iterative solution of the eigenvalue problem:
     one sub-group per band group will be used
     ELPA distributed-memory algorithm (size of sub-group:  7*  7 procs)


     Parallelization info
     --------------------
     sticks:   dense  smooth     PW     G-vecs:    dense   smooth      PW
     Min         313     156     40               113151    39998    5324
     Max         314     157     41               113162    40021    5345
     Sum       20065   10033   2611              7241989  2560523  341313

     Using Slab Decomposition


     Title: 
     hBN-cap matched uncapped k3 attempt 1                                      


     bravais-lattice index     =            0
     lattice parameter (alat)  =      26.9796  a.u.
     unit-cell volume          =   53606.0115 (a.u.)^3
     number of atoms/cell      =          183
     number of atomic types    =            4
     number of electrons       =      1048.00
     number of Kohn-Sham states=          650
     kinetic-energy cutoff     =      50.0000  Ry
     charge density cutoff     =     400.0000  Ry
     scf convergence threshold =      1.0E-08
     mixing beta               =       0.0100
     number of iterations used =           20  TF        mixing
     Exchange-correlation= SLA  PW   PBE  PBE
                           (   1   4   3   4   0   0   0)

     celldm(1)=  26.979621  celldm(2)=   0.000000  celldm(3)=   0.000000
     celldm(4)=   0.000000  celldm(5)=   0.000000  celldm(6)=   0.000000

     crystal axes: (cart. coord. in units of alat)
               a(1) = (   1.000000   0.000000   0.000000 )  
               a(2) = (  -0.500000   0.866025   0.000000 )  
               a(3) = (   0.000000   0.000000   3.151923 )  

     reciprocal axes: (cart. coord. in units 2 pi/alat)
               b(1) = (  1.000000  0.577351 -0.000000 )  
               b(2) = (  0.000000  1.154701  0.000000 )  
               b(3) = (  0.000000 -0.000000  0.317267 )  


     PseudoPot. # 1 for Al read from file:
     ./REDACTED_PATH
     MD5 check sum: cfc449ca30b5f3223ec38ddd88ac046d
     Pseudo is Projector augmented-wave + core cor, Zval =  3.0
     Generated using "atomic" code by A. Dal Corso  v.5.1
     Shape of augmentation charge: PSQ
     Using radial grid of 1135 points,  6 beta functions with: 
                l(1) =   0
                l(2) =   0
                l(3) =   1
                l(4) =   1
                l(5) =   2
                l(6) =   2
     Q(r) pseudized with 0 coefficients 


     PseudoPot. # 2 for O  read from file:
     ./REDACTED_PATH
     MD5 check sum: 0234752ac141de4415c5fc33072bef88
     Pseudo is Projector augmented-wave + core cor, Zval =  6.0
     Generated using "atomic" code by A. Dal Corso  v.5.0.99 svn rev. 10869
     Shape of augmentation charge: BESSEL
     Using radial grid of 1095 points,  4 beta functions with: 
                l(1) =   0
                l(2) =   0
                l(3) =   1
                l(4) =   1
     Q(r) pseudized with 0 coefficients 


     PseudoPot. # 3 for Nb read from file:
     ./REDACTED_PATH
     MD5 check sum: 411d72ad547312f8017e2943ceca08cc
     Pseudo is Projector augmented-wave + core cor, Zval = 13.0
     Generated using "atomic" code by A. Dal Corso  v.5.0.99 svn rev. 10869
     Shape of augmentation charge: PSQ
     Using radial grid of 1227 points,  6 beta functions with: 
                l(1) =   0
                l(2) =   0
                l(3) =   1
                l(4) =   1
                l(5) =   2
                l(6) =   2
     Q(r) pseudized with 0 coefficients 


     PseudoPot. # 4 for Se read from file:
     ./REDACTED_PATH
     MD5 check sum: 1b3568f3a8ae88f9a2a0ad0698632c85
     Pseudo is Ultrasoft + core correction, Zval =  6.0
     Generated by new atomic code, or converted to UPF format
     Using radial grid of  877 points,  6 beta functions with: 
                l(1) =   0
                l(2) =   0
                l(3) =   1
                l(4) =   1
                l(5) =   2
                l(6) =   2
     Q(r) pseudized with  8 coefficients,  rinner =    1.300   1.300   1.300
                                                       1.300   1.300

     atomic species   valence    mass     pseudopotential
     Al                3.00    26.98154     Al( 1.00)
     O                 6.00    15.99900     O ( 1.00)
     Nb               13.00    92.90637     Nb( 1.00)
     Se                6.00    78.97100     Se( 1.00)

     Starting magnetic structure 
     atomic species   magnetization
     Al              0.000
     O               0.000
     Nb              0.020
     Se              0.000

     No symmetry found


                                    s                        frac. trans.

      isym =  1     identity                                     

 cryst.   s( 1) = (     1          0          0      )
                  (     0          1          0      )
                  (     0          0          1      )

 cart.    s( 1) = (  1.0000000  0.0000000  0.0000000 )
                  (  0.0000000  1.0000000  0.0000000 )
                  (  0.0000000  0.0000000  1.0000000 )


   Cartesian axes

     site n.     atom                  positions (alat units)
         1        Al     tau(   1) = (   0.1666667   0.0962250   0.8513798  )
         2        Al     tau(   2) = (   0.0000000   0.1924501   0.9841938  )
         3        Al     tau(   3) = (   0.0000000   0.0000000   0.8177469  )
         4        Al     tau(   4) = (   0.0000000   0.0000000   1.0026577  )
         5        Al     tau(   5) = (   0.1666667   0.0962250   1.0737814  )
         6        Al     tau(   6) = (   0.0000000   0.1924501   0.7004272  )
         7        O      tau(   7) = (   0.2687667   0.0962250   0.7590871  )
         8        O      tau(   8) = (   0.1156167   0.1846462   0.7590871  )
         9        O      tau(   9) = (   0.1156167   0.0078039   0.7590871  )
        10        O      tau(  10) = (   0.1047547   0.1975389   1.0655402  )
        11        O      tau(  11) = (  -0.0567844   0.2806259   1.0655402  )
        12        O      tau(  12) = (  -0.0479703   0.0991855   1.0655402  )
        13        O      tau(  13) = (   0.2293632   0.0007279   0.9135286  )
        14        O      tau(  14) = (   0.8846880   0.1982704   0.9135286  )
        15        O      tau(  15) = (   0.0526155   0.0896768   0.9135286  )
        16        Al     tau(  16) = (  -0.0000000   0.3849000   0.8513798  )
        17        Al     tau(  17) = (  -0.1666667   0.4811251   0.9841938  )
        18        Al     tau(  18) = (  -0.1666667   0.2886750   0.8177469  )
        19        Al     tau(  19) = (  -0.1666667   0.2886750   1.0026577  )
        20        Al     tau(  20) = (  -0.0000000   0.3849000   1.0737814  )
        21        Al     tau(  21) = (  -0.1666667   0.4811251   0.7004272  )
        22        O      tau(  22) = (   0.1021000   0.3849000   0.7590871  )
        23        O      tau(  23) = (  -0.0510500   0.4733212   0.7590871  )
        24        O      tau(  24) = (  -0.0510500   0.2964789   0.7590871  )
        25        O      tau(  25) = (  -0.0619120   0.4862139   1.0655402  )
        26        O      tau(  26) = (  -0.2234510   0.5693009   1.0655402  )
        27        O      tau(  27) = (  -0.2146370   0.3878605   1.0655402  )
        28        O      tau(  28) = (   0.0626965   0.2894029   0.9135286  )
        29        O      tau(  29) = (   0.7180214   0.4869454   0.9135286  )
        30        O      tau(  30) = (  -0.1140512   0.3783518   0.9135286  )
        31        Al     tau(  31) = (  -0.1666667   0.6735750   0.8513798  )
        32        Al     tau(  32) = (  -0.3333333   0.7698001   0.9841938  )
        33        Al     tau(  33) = (  -0.3333333   0.5773500   0.8177469  )
        34        Al     tau(  34) = (  -0.3333333   0.5773500   1.0026577  )
        35        Al     tau(  35) = (  -0.1666667   0.6735750   1.0737814  )
        36        Al     tau(  36) = (  -0.3333333   0.7698001   0.7004272  )
        37        O      tau(  37) = (  -0.0645667   0.6735750   0.7590871  )
        38        O      tau(  38) = (  -0.2177167   0.7619962   0.7590871  )
        39        O      tau(  39) = (  -0.2177167   0.5851539   0.7590871  )
        40        O      tau(  40) = (  -0.2285787   0.7748889   1.0655402  )
        41        O      tau(  41) = (  -0.3901177   0.8579759   1.0655402  )
        42        O      tau(  42) = (  -0.3813037   0.6765355   1.0655402  )
        43        O      tau(  43) = (  -0.1039702   0.5780779   0.9135286  )
        44        O      tau(  44) = (   0.5513547   0.7756204   0.9135286  )
        45        O      tau(  45) = (  -0.2807179   0.6670268   0.9135286  )
        46        Al     tau(  46) = (   0.5000000   0.0962250   0.8513798  )
        47        Al     tau(  47) = (   0.3333333   0.1924501   0.9841938  )
        48        Al     tau(  48) = (   0.3333333   0.0000000   0.8177469  )
        49        Al     tau(  49) = (   0.3333333   0.0000000   1.0026577  )
        50        Al     tau(  50) = (   0.5000000   0.0962250   1.0737814  )
        51        Al     tau(  51) = (   0.3333333   0.1924501   0.7004272  )
        52        O      tau(  52) = (   0.6021000   0.0962250   0.7590871  )
        53        O      tau(  53) = (   0.4489500   0.1846462   0.7590871  )
        54        O      tau(  54) = (   0.4489500   0.0078039   0.7590871  )
        55        O      tau(  55) = (   0.4380880   0.1975389   1.0655402  )
        56        O      tau(  56) = (   0.2765490   0.2806259   1.0655402  )
        57        O      tau(  57) = (   0.2853630   0.0991855   1.0655402  )
        58        O      tau(  58) = (   0.5626965   0.0007279   0.9135286  )
        59        O      tau(  59) = (   0.2180214   0.1982704   0.9135286  )
        60        O      tau(  60) = (   0.3859488   0.0896768   0.9135286  )
        61        Al     tau(  61) = (   0.3333333   0.3849000   0.8513798  )
        62        Al     tau(  62) = (   0.1666667   0.4811251   0.9841938  )
        63        Al     tau(  63) = (   0.1666667   0.2886750   0.8177469  )
        64        Al     tau(  64) = (   0.1666667   0.2886750   1.0026577  )
        65        Al     tau(  65) = (   0.3333333   0.3849000   1.0737814  )
        66        Al     tau(  66) = (   0.1666667   0.4811251   0.7004272  )
        67        O      tau(  67) = (   0.4354333   0.3849000   0.7590871  )
        68        O      tau(  68) = (   0.2822833   0.4733212   0.7590871  )
        69        O      tau(  69) = (   0.2822833   0.2964789   0.7590871  )
        70        O      tau(  70) = (   0.2714213   0.4862139   1.0655402  )
        71        O      tau(  71) = (   0.1098823   0.5693009   1.0655402  )
        72        O      tau(  72) = (   0.1186963   0.3878605   1.0655402  )
        73        O      tau(  73) = (   0.3960298   0.2894029   0.9135286  )
        74        O      tau(  74) = (   0.0513547   0.4869454   0.9135286  )
        75        O      tau(  75) = (   0.2192821   0.3783518   0.9135286  )
        76        Al     tau(  76) = (   0.1666667   0.6735750   0.8513798  )
        77        Al     tau(  77) = (   0.0000000   0.7698001   0.9841938  )
        78        Al     tau(  78) = (   0.0000000   0.5773500   0.8177469  )
        79        Al     tau(  79) = (   0.0000000   0.5773500   1.0026577  )
        80        Al     tau(  80) = (   0.1666667   0.6735750   1.0737814  )
        81        Al     tau(  81) = (   0.0000000   0.7698001   0.7004272  )
        82        O      tau(  82) = (   0.2687667   0.6735750   0.7590871  )
        83        O      tau(  83) = (   0.1156167   0.7619962   0.7590871  )
        84        O      tau(  84) = (   0.1156167   0.5851539   0.7590871  )
        85        O      tau(  85) = (   0.1047547   0.7748889   1.0655402  )
        86        O      tau(  86) = (  -0.0567844   0.8579759   1.0655402  )
        87        O      tau(  87) = (  -0.0479703   0.6765355   1.0655402  )
        88        O      tau(  88) = (   0.2293632   0.5780779   0.9135286  )
        89        O      tau(  89) = (  -0.1153120   0.7756204   0.9135286  )
        90        O      tau(  90) = (   0.0526155   0.6670268   0.9135286  )
        91        Al     tau(  91) = (   0.8333333   0.0962250   0.8513798  )
        92        Al     tau(  92) = (   0.6666667   0.1924501   0.9841938  )
        93        Al     tau(  93) = (   0.6666667   0.0000000   0.8177469  )
        94        Al     tau(  94) = (   0.6666667   0.0000000   1.0026577  )
        95        Al     tau(  95) = (   0.8333333   0.0962250   1.0737814  )
        96        Al     tau(  96) = (   0.6666667   0.1924501   0.7004272  )
        97        O      tau(  97) = (   0.9354333   0.0962250   0.7590871  )
        98        O      tau(  98) = (   0.7822833   0.1846462   0.7590871  )
        99        O      tau(  99) = (   0.7822833   0.0078039   0.7590871  )
       100        O      tau( 100) = (   0.7714213   0.1975389   1.0655402  )
       101        O      tau( 101) = (   0.6098823   0.2806259   1.0655402  )
       102        O      tau( 102) = (   0.6186963   0.0991855   1.0655402  )
       103        O      tau( 103) = (   0.8960298   0.0007279   0.9135286  )
       104        O      tau( 104) = (   0.5513547   0.1982704   0.9135286  )
       105        O      tau( 105) = (   0.7192821   0.0896768   0.9135286  )
       106        Al     tau( 106) = (   0.6666667   0.3849000   0.8513798  )
       107        Al     tau( 107) = (   0.5000000   0.4811251   0.9841938  )
       108        Al     tau( 108) = (   0.5000000   0.2886750   0.8177469  )
       109        Al     tau( 109) = (   0.5000000   0.2886750   1.0026577  )
       110        Al     tau( 110) = (   0.6666667   0.3849000   1.0737814  )
       111        Al     tau( 111) = (   0.5000000   0.4811251   0.7004272  )
       112        O      tau( 112) = (   0.7687667   0.3849000   0.7590871  )
       113        O      tau( 113) = (   0.6156167   0.4733212   0.7590871  )
       114        O      tau( 114) = (   0.6156167   0.2964789   0.7590871  )
       115        O      tau( 115) = (   0.6047547   0.4862139   1.0655402  )
       116        O      tau( 116) = (   0.4432156   0.5693009   1.0655402  )
       117        O      tau( 117) = (   0.4520297   0.3878605   1.0655402  )
       118        O      tau( 118) = (   0.7293632   0.2894029   0.9135286  )
       119        O      tau( 119) = (   0.3846880   0.4869454   0.9135286  )
       120        O      tau( 120) = (   0.5526155   0.3783518   0.9135286  )
       121        Al     tau( 121) = (   0.5000000   0.6735750   0.8513798  )
       122        Al     tau( 122) = (   0.3333333   0.7698001   0.9841938  )
       123        Al     tau( 123) = (   0.3333333   0.5773500   0.8177469  )
       124        Al     tau( 124) = (   0.3333333   0.5773500   1.0026577  )
       125        Al     tau( 125) = (   0.5000000   0.6735750   1.0737814  )
       126        Al     tau( 126) = (   0.3333333   0.7698001   0.7004272  )
       127        O      tau( 127) = (   0.6021000   0.6735750   0.7590871  )
       128        O      tau( 128) = (   0.4489500   0.7619962   0.7590871  )
       129        O      tau( 129) = (   0.4489500   0.5851539   0.7590871  )
       130        O      tau( 130) = (   0.4380880   0.7748889   1.0655402  )
       131        O      tau( 131) = (   0.2765490   0.8579759   1.0655402  )
       132        O      tau( 132) = (   0.2853630   0.6765355   1.0655402  )
       133        O      tau( 133) = (   0.5626965   0.5780779   0.9135286  )
       134        O      tau( 134) = (   0.2180214   0.7756204   0.9135286  )
       135        O      tau( 135) = (   0.3859488   0.6670268   0.9135286  )
       136        Nb     tau( 136) = (   0.1666818   0.0962262   1.3928999  )
       137        Se     tau( 137) = (   0.1662111   0.2403240   1.5087056  )
       138        Se     tau( 138) = (   0.1671340   0.2401086   1.2774889  )
       139        Nb     tau( 139) = (   0.0416277   0.3114126   1.3914489  )
       140        Se     tau( 140) = (   0.0426891   0.4578421   1.5039540  )
       141        Se     tau( 141) = (   0.0399368   0.4545423   1.2740581  )
       142        Nb     tau( 142) = (  -0.0843591   0.5286109   1.3896145  )
       143        Se     tau( 143) = (  -0.0820192   0.6735507   1.5050556  )
       144        Se     tau( 144) = (  -0.0874972   0.6732950   1.2754832  )
       145        Nb     tau( 145) = (  -0.2095591   0.7463934   1.3930791  )
       146        Se     tau( 146) = (   0.2917356   0.0244224   1.5087437  )
       147        Se     tau( 147) = (   0.2909976   0.0238684   1.2775805  )
       148        Nb     tau( 148) = (   0.4155057   0.0969538   1.3915391  )
       149        Se     tau( 149) = (   0.4170579   0.2403859   1.5084472  )
       150        Se     tau( 150) = (   0.4163197   0.2413736   1.2774329  )
       151        Nb     tau( 151) = (   0.2916293   0.3113065   1.3930209  )
       152        Se     tau( 152) = (   0.2909552   0.4581913   1.5049851  )
       153        Se     tau( 153) = (   0.2940047   0.4535881   1.2754146  )
       154        Nb     tau( 154) = (   0.1668601   0.5274992   1.3865517  )
       155        Se     tau( 155) = (   0.1666528   0.6734722   1.4998410  )
       156        Se     tau( 156) = (   0.1666658   0.6735591   1.2724212  )
       157        Nb     tau( 157) = (   0.0400960   0.7463830   1.3866370  )
       158        Se     tau( 158) = (   0.5418688   0.0227255   1.5040237  )
       159        Se     tau( 159) = (   0.5403026   0.0269424   1.2742264  )
       160        Nb     tau( 160) = (   0.6666629   0.0974475   1.3897105  )
       161        Se     tau( 161) = (   0.6670268   0.2400398   1.5070972  )
       162        Se     tau( 162) = (   0.6672509   0.2415882   1.2761461  )
       163        Nb     tau( 163) = (   0.5416855   0.3125482   1.3914170  )
       164        Se     tau( 164) = (   0.5409572   0.4570002   1.5071103  )
       165        Se     tau( 165) = (   0.5422099   0.4561638   1.2760927  )
       166        Nb     tau( 166) = (   0.4176810   0.5286071   1.3896009  )
       167        Se     tau( 167) = (   0.4154589   0.6739054   1.5040380  )
       168        Se     tau( 168) = (   0.4197599   0.6733256   1.2741688  )
       169        Nb     tau( 169) = (   0.2930404   0.7467380   1.3866413  )
       170        Se     tau( 170) = (   0.7910517   0.0228267   1.5050716  )
       171        Se     tau( 171) = (   0.7934915   0.0279674   1.2755456  )
       172        Nb     tau( 172) = (   0.9179239   0.0969241   1.3930981  )
       173        Se     tau( 173) = (  -0.0834085   0.2409880   1.5084365  )
       174        Se     tau( 174) = (  -0.0838095   0.2398993   1.2774511  )
       175        Nb     tau( 175) = (   0.7918596   0.3129202   1.3914154  )
       176        Se     tau( 176) = (  -0.2080058   0.4575643   1.5071335  )
       177        Se     tau( 177) = (  -0.2094467   0.4571253   1.2760845  )
       178        Nb     tau( 178) = (   0.6664680   0.5292888   1.3914751  )
       179        Se     tau( 179) = (  -0.3336377   0.6732043   1.5085083  )
       180        Se     tau( 180) = (  -0.3325301   0.6735377   1.2774706  )
       181        Nb     tau( 181) = (   0.5428415   0.7463150   1.3915527  )
       182        Se     tau( 182) = (   0.0420279   0.0236896   1.5087409  )
       183        Se     tau( 183) = (   0.0418836   0.0247684   1.2775798  )

     --------------------------------------------
     DFT-D3 Dispersion Correction (3-body terms):
     --------------------------------------------
       Reference C6 values for interpolation: 

         atom   Coordination number   C6
         O          0.000            31.01
         O          0.993            25.63
         O          1.989            20.74
         Al         0.000          1081.08
         Al         0.965           875.51
         Al         1.931           513.50
         Al         2.915           307.19
         Se         0.000           427.35
         Se         0.990           427.57
         Se         1.981           421.05
         Nb         0.000          2950.50
         Nb         1.954          1161.16
         Nb         2.922           857.79

       Values used:

         atom   Coordination number  R0_AB[au]  C6      C8
         Al         9.714            3.789    307.19  29441.29
         Al        10.549            3.789    307.19  29441.29
         Al        10.102            3.789    307.19  29441.29
         Al        11.461            3.789    307.19  29441.29
         Al         7.122            3.789    307.19  29441.29
         Al         4.169            3.789    307.19  29441.31
         O          2.996            2.345     20.74    418.58
         O          2.996            2.345     20.74    418.58
         O          2.996            2.345     20.74    418.58
         O          3.059            2.345     20.74    418.58
         O          3.064            2.345     20.74    418.58
         O          3.055            2.345     20.74    418.58
         O          3.992            2.345     20.74    418.58
         O          3.992            2.345     20.74    418.58
         O          3.992            2.345     20.74    418.58
         Al         9.714            3.789    307.19  29441.29
         Al        10.552            3.789    307.19  29441.29
         Al        10.102            3.789    307.19  29441.29
         Al        11.457            3.789    307.19  29441.29
         Al         7.332            3.789    307.19  29441.29
         Al         4.169            3.789    307.19  29441.31
         O          2.996            2.345     20.74    418.58
         O          2.996            2.345     20.74    418.58
         O          2.996            2.345     20.74    418.58
         O          3.057            2.345     20.74    418.58
         O          3.056            2.345     20.74    418.58
         O          3.061            2.345     20.74    418.58
         O          3.992            2.345     20.74    418.58
         O          3.992            2.345     20.74    418.58
         O          3.992            2.345     20.74    418.58
         Al         9.714            3.789    307.19  29441.29
         Al        10.549            3.789    307.19  29441.29
         Al        10.102            3.789    307.19  29441.29
         Al        11.457            3.789    307.19  29441.29
         Al         7.318            3.789    307.19  29441.29
         Al         4.169            3.789    307.19  29441.31
         O          2.996            2.345     20.74    418.58
         O          2.996            2.345     20.74    418.58
         O          2.996            2.345     20.74    418.58
         O          3.055            2.345     20.74    418.58
         O          3.059            2.345     20.74    418.58
         O          3.064            2.345     20.74    418.58
         O          3.992            2.345     20.74    418.58
         O          3.992            2.345     20.74    418.58
         O          3.992            2.345     20.74    418.58
         Al         9.714            3.789    307.19  29441.29
         Al        10.549            3.789    307.19  29441.29
         Al        10.102            3.789    307.19  29441.29
         Al        11.461            3.789    307.19  29441.29
         Al         7.330            3.789    307.19  29441.29
         Al         4.169            3.789    307.19  29441.31
         O          2.996            2.345     20.74    418.58
         O          2.996            2.345     20.74    418.58
         O          2.996            2.345     20.74    418.58
         O          3.064            2.345     20.74    418.58
         O          3.055            2.345     20.74    418.58
         O          3.059            2.345     20.74    418.58
         O          3.992            2.345     20.74    418.58
         O          3.992            2.345     20.74    418.58
         O          3.992            2.345     20.74    418.58
         Al         9.714            3.789    307.19  29441.29
         Al        10.550            3.789    307.19  29441.29
         Al        10.102            3.789    307.19  29441.29
         Al        11.461            3.789    307.19  29441.29
         Al         7.319            3.789    307.19  29441.29
         Al         4.169            3.789    307.19  29441.31
         O          2.996            2.345     20.74    418.58
         O          2.996            2.345     20.74    418.58
         O          2.996            2.345     20.74    418.58
         O          3.068            2.345     20.74    418.58
         O          3.057            2.345     20.74    418.58
         O          3.057            2.345     20.74    418.58
         O          3.992            2.345     20.74    418.58
         O          3.992            2.345     20.74    418.58
         O          3.992            2.345     20.74    418.58
         Al         9.714            3.789    307.19  29441.29
         Al        10.550            3.789    307.19  29441.29
         Al        10.102            3.789    307.19  29441.29
         Al        11.457            3.789    307.19  29441.29
         Al         7.621            3.789    307.19  29441.29
         Al         4.169            3.789    307.19  29441.31
         O          2.996            2.345     20.74    418.58
         O          2.996            2.345     20.74    418.58
         O          2.996            2.345     20.74    418.58
         O          3.057            2.345     20.74    418.58
         O          3.057            2.345     20.74    418.58
         O          3.068            2.345     20.74    418.58
         O          3.992            2.345     20.74    418.58
         O          3.992            2.345     20.74    418.58
         O          3.992            2.345     20.74    418.58
         Al         9.714            3.789    307.19  29441.29
         Al        10.552            3.789    307.19  29441.29
         Al        10.102            3.789    307.19  29441.29
         Al        11.457            3.789    307.19  29441.29
         Al         7.318            3.789    307.19  29441.29
         Al         4.169            3.789    307.19  29441.31
         O          2.996            2.345     20.74    418.58
         O          2.996            2.345     20.74    418.58
         O          2.996            2.345     20.74    418.58
         O          3.056            2.345     20.74    418.58
         O          3.061            2.345     20.74    418.58
         O          3.057            2.345     20.74    418.58
         O          3.992            2.345     20.74    418.58
         O          3.992            2.345     20.74    418.58
         O          3.992            2.345     20.74    418.58
         Al         9.714            3.789    307.19  29441.29
         Al        10.552            3.789    307.19  29441.29
         Al        10.102            3.789    307.19  29441.29
         Al        11.457            3.789    307.19  29441.29
         Al         7.135            3.789    307.19  29441.29
         Al         4.169            3.789    307.19  29441.31
         O          2.996            2.345     20.74    418.58
         O          2.996            2.345     20.74    418.58
         O          2.996            2.345     20.74    418.58
         O          3.061            2.345     20.74    418.58
         O          3.057            2.345     20.74    418.58
         O          3.056            2.345     20.74    418.58
         O          3.992            2.345     20.74    418.58
         O          3.992            2.345     20.74    418.58
         O          3.992            2.345     20.74    418.58
         Al         9.714            3.789    307.19  29441.29
         Al        10.550            3.789    307.19  29441.29
         Al        10.102            3.789    307.19  29441.29
         Al        11.457            3.789    307.19  29441.29
         Al         7.330            3.789    307.19  29441.29
         Al         4.169            3.789    307.19  29441.31
         O          2.996            2.345     20.74    418.58
         O          2.996            2.345     20.74    418.58
         O          2.996            2.345     20.74    418.58
         O          3.057            2.345     20.74    418.58
         O          3.068            2.345     20.74    418.58
         O          3.057            2.345     20.74    418.58
         O          3.992            2.345     20.74    418.58
         O          3.992            2.345     20.74    418.58
         O          3.992            2.345     20.74    418.58
         Nb         8.739            3.647    857.79 111659.18
         Se         3.447            3.332    421.05  29958.36
         Se         3.600            3.332    421.05  29958.36
         Nb         8.671            3.647    857.79 111659.18
         Se         3.469            3.332    421.05  29958.36
         Se         3.854            3.332    421.05  29958.36
         Nb         8.590            3.647    857.79 111659.18
         Se         3.465            3.332    421.05  29958.36
         Se         3.864            3.332    421.05  29958.36
         Nb         8.670            3.647    857.79 111659.18
         Se         3.447            3.332    421.05  29958.36
         Se         3.600            3.332    421.05  29958.36
         Nb         8.668            3.647    857.79 111659.18
         Se         3.443            3.332    421.05  29958.36
         Se         3.602            3.332    421.05  29958.36
         Nb         8.673            3.647    857.79 111659.18
         Se         3.466            3.332    421.05  29958.36
         Se         3.866            3.332    421.05  29958.36
         Nb         8.508            3.647    857.79 111659.18
         Se         3.506            3.332    421.05  29958.36
         Se         4.145            3.332    421.05  29958.36
         Nb         8.504            3.647    857.79 111659.18
         Se         3.468            3.332    421.05  29958.36
         Se         3.852            3.332    421.05  29958.36
         Nb         8.585            3.647    857.79 111659.18
         Se         3.445            3.332    421.05  29958.36
         Se         3.607            3.332    421.05  29958.36
         Nb         8.656            3.647    857.79 111659.18
         Se         3.445            3.332    421.05  29958.36
         Se         3.606            3.332    421.05  29958.36
         Nb         8.590            3.647    857.79 111659.18
         Se         3.469            3.332    421.05  29958.36
         Se         3.852            3.332    421.05  29958.36
         Nb         8.504            3.647    857.79 111659.18
         Se         3.465            3.332    421.05  29958.36
         Se         3.864            3.332    421.05  29958.36
         Nb         8.669            3.647    857.79 111659.18
         Se         3.443            3.332    421.05  29958.36
         Se         3.603            3.332    421.05  29958.36
         Nb         8.656            3.647    857.79 111659.18
         Se         3.445            3.332    421.05  29958.36
         Se         3.606            3.332    421.05  29958.36
         Nb         8.657            3.647    857.79 111659.18
         Se         3.443            3.332    421.05  29958.36
         Se         3.602            3.332    421.05  29958.36
         Nb         8.668            3.647    857.79 111659.18
         Se         3.447            3.332    421.05  29958.36
         Se         3.600            3.332    421.05  29958.36

         Molecular C6 ( Ry / a.u.^6 ) =   5799733.52


   Crystallographic axes

     site n.     atom                  positions (cryst. coord.)
         1        Al     tau(   1) = (  0.2222222  0.1111112  0.2701144  )
         2        Al     tau(   2) = (  0.1111112  0.2222223  0.3122519  )
         3        Al     tau(   3) = (  0.0000000  0.0000000  0.2594438  )
         4        Al     tau(   4) = (  0.0000000  0.0000000  0.3181099  )
         5        Al     tau(   5) = (  0.2222222  0.1111112  0.3406750  )
         6        Al     tau(   6) = (  0.1111112  0.2222223  0.2222222  )
         7        O      tau(   7) = (  0.3243222  0.1111112  0.2408330  )
         8        O      tau(   8) = (  0.2222223  0.2132112  0.2408330  )
         9        O      tau(   9) = (  0.1201222  0.0090111  0.2408330  )
        10        O      tau(  10) = (  0.2188039  0.2280983  0.3380604  )
        11        O      tau(  11) = (  0.1052352  0.3240390  0.3380604  )
        12        O      tau(  12) = (  0.0092945  0.1145296  0.3380604  )
        13        O      tau(  13) = (  0.2297834  0.0008405  0.2898322  )
        14        O      tau(  14) = (  0.9991595  0.2289430  0.2898322  )
        15        O      tau(  15) = (  0.1043904  0.1035500  0.2898322  )
        16        Al     tau(  16) = (  0.2222222  0.4444445  0.2701144  )
        17        Al     tau(  17) = (  0.1111112  0.5555557  0.3122519  )
        18        Al     tau(  18) = ( -0.0000000  0.3333333  0.2594438  )
        19        Al     tau(  19) = ( -0.0000000  0.3333333  0.3181099  )
        20        Al     tau(  20) = (  0.2222222  0.4444445  0.3406750  )
        21        Al     tau(  21) = (  0.1111112  0.5555557  0.2222222  )
        22        O      tau(  22) = (  0.3243222  0.4444445  0.2408330  )
        23        O      tau(  23) = (  0.2222223  0.5465445  0.2408330  )
        24        O      tau(  24) = (  0.1201222  0.3423444  0.2408330  )
        25        O      tau(  25) = (  0.2188039  0.5614317  0.3380604  )
        26        O      tau(  26) = (  0.1052352  0.6573724  0.3380604  )
        27        O      tau(  27) = (  0.0092945  0.4478629  0.3380604  )
        28        O      tau(  28) = (  0.2297834  0.3341738  0.2898322  )
        29        O      tau(  29) = (  0.9991595  0.5622763  0.2898322  )
        30        O      tau(  30) = (  0.1043904  0.4368833  0.2898322  )
        31        Al     tau(  31) = (  0.2222222  0.7777778  0.2701144  )
        32        Al     tau(  32) = (  0.1111112  0.8888890  0.3122519  )
        33        Al     tau(  33) = (  0.0000000  0.6666667  0.2594438  )
        34        Al     tau(  34) = (  0.0000000  0.6666667  0.3181099  )
        35        Al     tau(  35) = (  0.2222222  0.7777778  0.3406750  )
        36        Al     tau(  36) = (  0.1111112  0.8888890  0.2222222  )
        37        O      tau(  37) = (  0.3243222  0.7777778  0.2408330  )
        38        O      tau(  38) = (  0.2222223  0.8798779  0.2408330  )
        39        O      tau(  39) = (  0.1201222  0.6756778  0.2408330  )
        40        O      tau(  40) = (  0.2188039  0.8947650  0.3380604  )
        41        O      tau(  41) = (  0.1052352  0.9907057  0.3380604  )
        42        O      tau(  42) = (  0.0092945  0.7811962  0.3380604  )
        43        O      tau(  43) = (  0.2297834  0.6675072  0.2898322  )
        44        O      tau(  44) = (  0.9991595  0.8956097  0.2898322  )
        45        O      tau(  45) = (  0.1043904  0.7702166  0.2898322  )
        46        Al     tau(  46) = (  0.5555556  0.1111112  0.2701144  )
        47        Al     tau(  47) = (  0.4444445  0.2222223  0.3122519  )
        48        Al     tau(  48) = (  0.3333333  0.0000000  0.2594438  )
        49        Al     tau(  49) = (  0.3333333  0.0000000  0.3181099  )
        50        Al     tau(  50) = (  0.5555556  0.1111112  0.3406750  )
        51        Al     tau(  51) = (  0.4444445  0.2222223  0.2222222  )
        52        O      tau(  52) = (  0.6576556  0.1111112  0.2408330  )
        53        O      tau(  53) = (  0.5555556  0.2132112  0.2408330  )
        54        O      tau(  54) = (  0.4534556  0.0090111  0.2408330  )
        55        O      tau(  55) = (  0.5521372  0.2280983  0.3380604  )
        56        O      tau(  56) = (  0.4385685  0.3240390  0.3380604  )
        57        O      tau(  57) = (  0.3426278  0.1145296  0.3380604  )
        58        O      tau(  58) = (  0.5631167  0.0008405  0.2898322  )
        59        O      tau(  59) = (  0.3324929  0.2289430  0.2898322  )
        60        O      tau(  60) = (  0.4377238  0.1035500  0.2898322  )
        61        Al     tau(  61) = (  0.5555556  0.4444445  0.2701144  )
        62        Al     tau(  62) = (  0.4444445  0.5555557  0.3122519  )
        63        Al     tau(  63) = (  0.3333333  0.3333333  0.2594438  )
        64        Al     tau(  64) = (  0.3333333  0.3333333  0.3181099  )
        65        Al     tau(  65) = (  0.5555556  0.4444445  0.3406750  )
        66        Al     tau(  66) = (  0.4444445  0.5555557  0.2222222  )
        67        O      tau(  67) = (  0.6576556  0.4444445  0.2408330  )
        68        O      tau(  68) = (  0.5555556  0.5465445  0.2408330  )
        69        O      tau(  69) = (  0.4534556  0.3423444  0.2408330  )
        70        O      tau(  70) = (  0.5521372  0.5614317  0.3380604  )
        71        O      tau(  71) = (  0.4385685  0.6573724  0.3380604  )
        72        O      tau(  72) = (  0.3426278  0.4478629  0.3380604  )
        73        O      tau(  73) = (  0.5631167  0.3341738  0.2898322  )
        74        O      tau(  74) = (  0.3324929  0.5622763  0.2898322  )
        75        O      tau(  75) = (  0.4377238  0.4368833  0.2898322  )
        76        Al     tau(  76) = (  0.5555556  0.7777778  0.2701144  )
        77        Al     tau(  77) = (  0.4444445  0.8888890  0.3122519  )
        78        Al     tau(  78) = (  0.3333333  0.6666667  0.2594438  )
        79        Al     tau(  79) = (  0.3333333  0.6666667  0.3181099  )
        80        Al     tau(  80) = (  0.5555556  0.7777778  0.3406750  )
        81        Al     tau(  81) = (  0.4444445  0.8888890  0.2222222  )
        82        O      tau(  82) = (  0.6576556  0.7777778  0.2408330  )
        83        O      tau(  83) = (  0.5555556  0.8798779  0.2408330  )
        84        O      tau(  84) = (  0.4534556  0.6756778  0.2408330  )
        85        O      tau(  85) = (  0.5521372  0.8947650  0.3380604  )
        86        O      tau(  86) = (  0.4385685  0.9907057  0.3380604  )
        87        O      tau(  87) = (  0.3426278  0.7811962  0.3380604  )
        88        O      tau(  88) = (  0.5631167  0.6675072  0.2898322  )
        89        O      tau(  89) = (  0.3324929  0.8956097  0.2898322  )
        90        O      tau(  90) = (  0.4377238  0.7702166  0.2898322  )
        91        Al     tau(  91) = (  0.8888889  0.1111112  0.2701144  )
        92        Al     tau(  92) = (  0.7777778  0.2222223  0.3122519  )
        93        Al     tau(  93) = (  0.6666667  0.0000000  0.2594438  )
        94        Al     tau(  94) = (  0.6666667  0.0000000  0.3181099  )
        95        Al     tau(  95) = (  0.8888889  0.1111112  0.3406750  )
        96        Al     tau(  96) = (  0.7777778  0.2222223  0.2222222  )
        97        O      tau(  97) = (  0.9909889  0.1111112  0.2408330  )
        98        O      tau(  98) = (  0.8888889  0.2132112  0.2408330  )
        99        O      tau(  99) = (  0.7867889  0.0090111  0.2408330  )
       100        O      tau( 100) = (  0.8854705  0.2280983  0.3380604  )
       101        O      tau( 101) = (  0.7719018  0.3240390  0.3380604  )
       102        O      tau( 102) = (  0.6759611  0.1145296  0.3380604  )
       103        O      tau( 103) = (  0.8964501  0.0008405  0.2898322  )
       104        O      tau( 104) = (  0.6658262  0.2289430  0.2898322  )
       105        O      tau( 105) = (  0.7710571  0.1035500  0.2898322  )
       106        Al     tau( 106) = (  0.8888889  0.4444445  0.2701144  )
       107        Al     tau( 107) = (  0.7777778  0.5555557  0.3122519  )
       108        Al     tau( 108) = (  0.6666667  0.3333333  0.2594438  )
       109        Al     tau( 109) = (  0.6666667  0.3333333  0.3181099  )
       110        Al     tau( 110) = (  0.8888889  0.4444445  0.3406750  )
       111        Al     tau( 111) = (  0.7777778  0.5555557  0.2222222  )
       112        O      tau( 112) = (  0.9909889  0.4444445  0.2408330  )
       113        O      tau( 113) = (  0.8888889  0.5465445  0.2408330  )
       114        O      tau( 114) = (  0.7867889  0.3423444  0.2408330  )
       115        O      tau( 115) = (  0.8854705  0.5614317  0.3380604  )
       116        O      tau( 116) = (  0.7719018  0.6573724  0.3380604  )
       117        O      tau( 117) = (  0.6759611  0.4478629  0.3380604  )
       118        O      tau( 118) = (  0.8964501  0.3341738  0.2898322  )
       119        O      tau( 119) = (  0.6658262  0.5622763  0.2898322  )
       120        O      tau( 120) = (  0.7710571  0.4368833  0.2898322  )
       121        Al     tau( 121) = (  0.8888889  0.7777778  0.2701144  )
       122        Al     tau( 122) = (  0.7777778  0.8888890  0.3122519  )
       123        Al     tau( 123) = (  0.6666667  0.6666667  0.2594438  )
       124        Al     tau( 124) = (  0.6666667  0.6666667  0.3181099  )
       125        Al     tau( 125) = (  0.8888889  0.7777778  0.3406750  )
       126        Al     tau( 126) = (  0.7777778  0.8888890  0.2222222  )
       127        O      tau( 127) = (  0.9909889  0.7777778  0.2408330  )
       128        O      tau( 128) = (  0.8888889  0.8798779  0.2408330  )
       129        O      tau( 129) = (  0.7867889  0.6756778  0.2408330  )
       130        O      tau( 130) = (  0.8854705  0.8947650  0.3380604  )
       131        O      tau( 131) = (  0.7719018  0.9907057  0.3380604  )
       132        O      tau( 132) = (  0.6759611  0.7811962  0.3380604  )
       133        O      tau( 133) = (  0.8964501  0.6675072  0.2898322  )
       134        O      tau( 134) = (  0.6658262  0.8956097  0.2898322  )
       135        O      tau( 135) = (  0.7710571  0.7702166  0.2898322  )
       136        Nb     tau( 136) = (  0.2222381  0.1111125  0.4419207  )
       137        Se     tau( 137) = (  0.3049623  0.2775024  0.4786620  )
       138        Se     tau( 138) = (  0.3057608  0.2772536  0.4053047  )
       139        Nb     tau( 139) = (  0.2214219  0.3595884  0.4414604  )
       140        Se     tau( 140) = (  0.3070245  0.5286707  0.4771545  )
       141        Se     tau( 141) = (  0.3023670  0.5248605  0.4042162  )
       142        Nb     tau( 142) = (  0.2208346  0.6103876  0.4408784  )
       143        Se     tau( 143) = (  0.3068557  0.7777497  0.4775040  )
       144        Se     tau( 144) = (  0.3012300  0.7774545  0.4046683  )
       145        Nb     tau( 145) = (  0.2213716  0.8618613  0.4419776  )
       146        Se     tau( 146) = (  0.3058358  0.0282005  0.4786741  )
       147        Se     tau( 147) = (  0.3047780  0.0275608  0.4053337  )
       148        Nb     tau( 148) = (  0.4714820  0.1119527  0.4414890  )
       149        Se     tau( 149) = (  0.5558448  0.2775738  0.4785800  )
       150        Se     tau( 150) = (  0.5556769  0.2787143  0.4052869  )
       151        Nb     tau( 151) = (  0.4713623  0.3594659  0.4419591  )
       152        Se     tau( 152) = (  0.5554922  0.5290740  0.4774816  )
       153        Se     tau( 153) = (  0.5558840  0.5237587  0.4046466  )
       154        Nb     tau( 154) = (  0.4714120  0.6091039  0.4399066  )
       155        Se     tau( 155) = (  0.5554823  0.7776591  0.4758496  )
       156        Se     tau( 156) = (  0.5555456  0.7777595  0.4036968  )
       157        Nb     tau( 157) = (  0.4710206  0.8618492  0.4399337  )
       158        Se     tau( 158) = (  0.5549894  0.0262412  0.4771766  )
       159        Se     tau( 159) = (  0.5558579  0.0311105  0.4042696  )
       160        Nb     tau( 160) = (  0.7229243  0.1125228  0.4409088  )
       161        Se     tau( 161) = (  0.8056139  0.2771742  0.4781517  )
       162        Se     tau( 162) = (  0.8067320  0.2789621  0.4048786  )
       163        Nb     tau( 163) = (  0.7221353  0.3608997  0.4414503  )
       164        Se     tau( 164) = (  0.8048064  0.5276986  0.4781559  )
       165        Se     tau( 165) = (  0.8055763  0.5267328  0.4048617  )
       166        Nb     tau( 166) = (  0.7228726  0.6103832  0.4408741  )
       167        Se     tau( 167) = (  0.8045386  0.7781593  0.4771811  )
       168        Se     tau( 168) = (  0.8085048  0.7774898  0.4042513  )
       169        Nb     tau( 169) = (  0.7241700  0.8622591  0.4399351  )
       170        Se     tau( 170) = (  0.8042308  0.0263580  0.4775091  )
       171        Se     tau( 171) = (  0.8096384  0.0322939  0.4046881  )
       172        Nb     tau( 172) = (  0.9738831  0.1119184  0.4419836  )
       173        Se     tau( 173) = (  0.0557260  0.2782691  0.4785766  )
       174        Se     tau( 174) = (  0.0546965  0.2770119  0.4052927  )
       175        Nb     tau( 175) = (  0.9725243  0.3613293  0.4414497  )
       176        Se     tau( 176) = (  0.0561692  0.5283499  0.4781632  )
       177        Se     tau( 177) = (  0.0544748  0.5278431  0.4048591  )
       178        Nb     tau( 178) = (  0.9720532  0.6111703  0.4414687  )
       179        Se     tau( 179) = (  0.0550372  0.7773497  0.4785994  )
       180        Se     tau( 180) = (  0.0563372  0.7777348  0.4052988  )
       181        Nb     tau( 181) = (  0.9737269  0.8617707  0.4414933  )
       182        Se     tau( 182) = (  0.0557051  0.0273544  0.4786732  )
       183        Se     tau( 183) = (  0.0561836  0.0286001  0.4053335  )

     number of k points=     5  Marzari-Vanderbilt smearing, width (Ry)=  0.0200
                       cart. coord. in units 2pi/alat
        k(    1) = (   0.0000000   0.0000000   0.0000000), wk =   0.1111111
        k(    2) = (   0.0000000   0.3849004   0.0000000), wk =   0.2222222
        k(    3) = (   0.3333333   0.1924502   0.0000000), wk =   0.2222222
        k(    4) = (   0.3333333   0.5773505   0.0000000), wk =   0.2222222
        k(    5) = (   0.3333333  -0.1924502   0.0000000), wk =   0.2222222

                       cryst. coord.
        k(    1) = (   0.0000000   0.0000000   0.0000000), wk =   0.1111111
        k(    2) = (   0.0000000   0.3333333   0.0000000), wk =   0.2222222
        k(    3) = (   0.3333333   0.0000000   0.0000000), wk =   0.2222222
        k(    4) = (   0.3333333   0.3333333   0.0000000), wk =   0.2222222
        k(    5) = (   0.3333333  -0.3333333   0.0000000), wk =   0.2222222

     Dense  grid:  7241989 G-vectors     FFT dimensions: ( 180, 180, 576)

     Smooth grid:  2560523 G-vectors     FFT dimensions: ( 125, 125, 384)

     Dynamical RAM for                 wfc:      49.59 MB

     Dynamical RAM for     wfc (w. buffer):     148.77 MB

     Dynamical RAM for           str. fact:       6.91 MB

     Dynamical RAM for           local pot:       0.00 MB

     Dynamical RAM for          nlocal pot:     189.51 MB

     Dynamical RAM for                qrad:       6.42 MB

     Dynamical RAM for          rho,v,vnew:      23.71 MB

     Dynamical RAM for               rhoin:       7.90 MB

     Dynamical RAM for            rho*nmix:     138.13 MB

     Dynamical RAM for           G-vectors:       6.78 MB

     Dynamical RAM for          h,s,v(r/c):       1.57 MB

     Dynamical RAM for          <psi|beta>:      24.64 MB

     Dynamical RAM for                 psi:      99.18 MB

     Dynamical RAM for                hpsi:      99.18 MB

     Dynamical RAM for                spsi:      99.18 MB

     Dynamical RAM for      wfcinit/wfcrot:     108.86 MB

     Dynamical RAM for           addusdens:      80.00 MB

     Dynamical RAM for          addusforce:     125.24 MB

     Dynamical RAM for         addusstress:      59.71 MB

     Estimated static dynamical RAM per process >     411.99 MB

     Estimated max dynamical RAM per process >     873.87 MB

     Estimated total dynamical RAM >     284.53 GB
 ----2D----2D----2D----2D----2D----2D----2D----2D----2D----2D----2D----2D
  The code is running with the 2D cutoff
  Please refer to:
  Sohier, T., Calandra, M., & Mauri, F. (2017), 
  Density functional perturbation theory for gated two-dimensional heterostructures:
  Theoretical developments and application to flexural phonons in graphene.
  Physical Review B, 96(7), 75448. https://doi.org/10.1103/PhysRevB.96.075448
 ----2D----2D----2D----2D----2D----2D----2D----2D----2D----2D----2D----2D
     Generating pointlists ...
     new r_m :   0.0491 (alat units)  1.3246 (a.u.) for type    1
     new r_m :   0.0491 (alat units)  1.3246 (a.u.) for type    2
     new r_m :   0.0757 (alat units)  2.0412 (a.u.) for type    3
     new r_m :   0.0757 (alat units)  2.0412 (a.u.) for type    4

     The initial density is read from file :
     ./REDACTED_PATH


     negative rho (up, down):  5.312E-03 5.312E-03
     Starting wfcs are  828 randomized atomic wfcs
     Checking if some PAW data can be deallocated... 
       PAW data deallocated on  267 nodes for type:  1
       PAW data deallocated on  213 nodes for type:  2
       PAW data deallocated on  352 nodes for type:  3

     total cpu time spent up to now is       35.6 secs

     per-process dynamical memory:   586.9 Mb

     Self-consistent Calculation

     iteration #  1     ecut=    50.00 Ry     beta= 0.01
     Davidson diagonalization with overlap

---- Real-time Memory Report at c_bands before calling an iterative solver
           874 MiB given to the printing process from OS
           573 MiB allocation reported by mallinfo(arena+hblkhd)
        242738 MiB available memory on the node where the printing process lives
------------------
     c_bands:  3 eigenvalues not converged
     ethr =  1.00E-05,  avg # of iterations = 31.6

     Threshold (ethr) on eigenvalues was too large:
     Diagonalizing with lowered threshold

     Davidson diagonalization with overlap

---- Real-time Memory Report at c_bands before calling an iterative solver
          1095 MiB given to the printing process from OS
           622 MiB allocation reported by mallinfo(arena+hblkhd)
        233394 MiB available memory on the node where the printing process lives
------------------
     ethr =  6.59E-08,  avg # of iterations =  9.0

     negative rho (up, down):  5.312E-03 5.312E-03

     total cpu time spent up to now is      459.0 secs

     total energy              =  -12271.35569242 Ry
     estimated scf accuracy    <       0.00070455 Ry

     total magnetization       =     0.00 Bohr mag/cell
     absolute magnetization    =     0.01 Bohr mag/cell

     iteration #  2     ecut=    50.00 Ry     beta= 0.01
     Davidson diagonalization with overlap

---- Real-time Memory Report at c_bands before calling an iterative solver
          1097 MiB given to the printing process from OS
           641 MiB allocation reported by mallinfo(arena+hblkhd)
        232332 MiB available memory on the node where the printing process lives
------------------
     ethr =  6.72E-08,  avg # of iterations =  1.0

     negative rho (up, down):  5.313E-03 5.313E-03

     total cpu time spent up to now is      510.2 secs

     total energy              =  -12271.35568597 Ry
     estimated scf accuracy    <       0.00064863 Ry

     total magnetization       =     0.00 Bohr mag/cell
     absolute magnetization    =     0.01 Bohr mag/cell

     iteration #  3     ecut=    50.00 Ry     beta= 0.01
     Davidson diagonalization with overlap

---- Real-time Memory Report at c_bands before calling an iterative solver
          1118 MiB given to the printing process from OS
           645 MiB allocation reported by mallinfo(arena+hblkhd)
        232495 MiB available memory on the node where the printing process lives
------------------
     ethr =  6.19E-08,  avg # of iterations =  1.0

     negative rho (up, down):  5.313E-03 5.313E-03

     total cpu time spent up to now is      565.1 secs

     total energy              =  -12271.35569787 Ry
     estimated scf accuracy    <       0.00001344 Ry

     total magnetization       =     0.01 Bohr mag/cell
     absolute magnetization    =     0.01 Bohr mag/cell

     iteration #  4     ecut=    50.00 Ry     beta= 0.01
     Davidson diagonalization with overlap

---- Real-time Memory Report at c_bands before calling an iterative solver
          1121 MiB given to the printing process from OS
           648 MiB allocation reported by mallinfo(arena+hblkhd)
        232266 MiB available memory on the node where the printing process lives
------------------
     ethr =  1.28E-09,  avg # of iterations =  7.3

     negative rho (up, down):  5.313E-03 5.313E-03

     total cpu time spent up to now is      674.5 secs

     total energy              =  -12271.35571227 Ry
     estimated scf accuracy    <       0.00001375 Ry

     total magnetization       =     0.01 Bohr mag/cell
     absolute magnetization    =     0.01 Bohr mag/cell

     iteration #  5     ecut=    50.00 Ry     beta= 0.01
     Davidson diagonalization with overlap

---- Real-time Memory Report at c_bands before calling an iterative solver
          1126 MiB given to the printing process from OS
           651 MiB allocation reported by mallinfo(arena+hblkhd)
        231635 MiB available memory on the node where the printing process lives
------------------
     ethr =  1.28E-09,  avg # of iterations =  1.0

     negative rho (up, down):  5.314E-03 5.314E-03

     total cpu time spent up to now is      728.7 secs

     total energy              =  -12271.35570805 Ry
     estimated scf accuracy    <       0.00001475 Ry

     total magnetization       =     0.01 Bohr mag/cell
     absolute magnetization    =     0.01 Bohr mag/cell

     iteration #  6     ecut=    50.00 Ry     beta= 0.01
     Davidson diagonalization with overlap

---- Real-time Memory Report at c_bands before calling an iterative solver
          1130 MiB given to the printing process from OS
           655 MiB allocation reported by mallinfo(arena+hblkhd)
        231475 MiB available memory on the node where the printing process lives
------------------
     ethr =  1.28E-09,  avg # of iterations =  2.0

     negative rho (up, down):  5.314E-03 5.314E-03

     total cpu time spent up to now is      790.8 secs

     total energy              =  -12271.35570935 Ry
     estimated scf accuracy    <       0.00000367 Ry

     total magnetization       =     0.01 Bohr mag/cell
     absolute magnetization    =     0.01 Bohr mag/cell

     iteration #  7     ecut=    50.00 Ry     beta= 0.01
     Davidson diagonalization with overlap

---- Real-time Memory Report at c_bands before calling an iterative solver
          1133 MiB given to the printing process from OS
           658 MiB allocation reported by mallinfo(arena+hblkhd)
        231438 MiB available memory on the node where the printing process lives
------------------
     ethr =  3.51E-10,  avg # of iterations =  1.9

     negative rho (up, down):  5.314E-03 5.314E-03

     total cpu time spent up to now is      849.0 secs

     total energy              =  -12271.35570956 Ry
     estimated scf accuracy    <       0.00000348 Ry

     total magnetization       =     0.01 Bohr mag/cell
     absolute magnetization    =     0.01 Bohr mag/cell

     iteration #  8     ecut=    50.00 Ry     beta= 0.01
     Davidson diagonalization with overlap

---- Real-time Memory Report at c_bands before calling an iterative solver
          1138 MiB given to the printing process from OS
           662 MiB allocation reported by mallinfo(arena+hblkhd)
        231469 MiB available memory on the node where the printing process lives
------------------
     ethr =  3.32E-10,  avg # of iterations =  1.0

     negative rho (up, down):  5.314E-03 5.314E-03

     total cpu time spent up to now is      900.6 secs

     total energy              =  -12271.35570950 Ry
     estimated scf accuracy    <       0.00000330 Ry

     total magnetization       =     0.01 Bohr mag/cell
     absolute magnetization    =     0.01 Bohr mag/cell

     iteration #  9     ecut=    50.00 Ry     beta= 0.01
     Davidson diagonalization with overlap

---- Real-time Memory Report at c_bands before calling an iterative solver
          1141 MiB given to the printing process from OS
           665 MiB allocation reported by mallinfo(arena+hblkhd)
        230911 MiB available memory on the node where the printing process lives
------------------
     ethr =  3.14E-10,  avg # of iterations =  1.0

     negative rho (up, down):  5.315E-03 5.315E-03

     total cpu time spent up to now is      951.7 secs

     total energy              =  -12271.35570932 Ry
     estimated scf accuracy    <       0.00000257 Ry

     total magnetization       =     0.01 Bohr mag/cell
     absolute magnetization    =     0.01 Bohr mag/cell

     iteration # 10     ecut=    50.00 Ry     beta= 0.01
     Davidson diagonalization with overlap

---- Real-time Memory Report at c_bands before calling an iterative solver
          1145 MiB given to the printing process from OS
           668 MiB allocation reported by mallinfo(arena+hblkhd)
        230687 MiB available memory on the node where the printing process lives
------------------
     ethr =  2.45E-10,  avg # of iterations =  1.0

     negative rho (up, down):  5.315E-03 5.315E-03

     total cpu time spent up to now is     1002.2 secs

     total energy              =  -12271.35570932 Ry
     estimated scf accuracy    <       0.00000175 Ry

     total magnetization       =     0.01 Bohr mag/cell
     absolute magnetization    =     0.01 Bohr mag/cell

     iteration # 11     ecut=    50.00 Ry     beta= 0.01
     Davidson diagonalization with overlap

---- Real-time Memory Report at c_bands before calling an iterative solver
          1148 MiB given to the printing process from OS
           672 MiB allocation reported by mallinfo(arena+hblkhd)
        230845 MiB available memory on the node where the printing process lives
------------------
     ethr =  1.67E-10,  avg # of iterations =  1.0

     negative rho (up, down):  5.318E-03 5.318E-03

     total cpu time spent up to now is     1053.5 secs

     total energy              =  -12271.35570916 Ry
     estimated scf accuracy    <       0.00000151 Ry

     total magnetization       =     0.01 Bohr mag/cell
     absolute magnetization    =     0.01 Bohr mag/cell

     iteration # 12     ecut=    50.00 Ry     beta= 0.01
     Davidson diagonalization with overlap

---- Real-time Memory Report at c_bands before calling an iterative solver
          1152 MiB given to the printing process from OS
           675 MiB allocation reported by mallinfo(arena+hblkhd)
        230310 MiB available memory on the node where the printing process lives
------------------
     ethr =  1.44E-10,  avg # of iterations =  1.4

     negative rho (up, down):  5.319E-03 5.319E-03

     total cpu time spent up to now is     1109.8 secs

     total energy              =  -12271.35570921 Ry
     estimated scf accuracy    <       0.00000088 Ry

     total magnetization       =     0.01 Bohr mag/cell
     absolute magnetization    =     0.01 Bohr mag/cell

     iteration # 13     ecut=    50.00 Ry     beta= 0.01
     Davidson diagonalization with overlap

---- Real-time Memory Report at c_bands before calling an iterative solver
          1155 MiB given to the printing process from OS
           679 MiB allocation reported by mallinfo(arena+hblkhd)
        230161 MiB available memory on the node where the printing process lives
------------------
     ethr =  8.39E-11,  avg # of iterations =  1.0

     negative rho (up, down):  5.321E-03 5.321E-03

     total cpu time spent up to now is     1161.1 secs

     total energy              =  -12271.35570917 Ry
     estimated scf accuracy    <       0.00000085 Ry

     total magnetization       =     0.01 Bohr mag/cell
     absolute magnetization    =     0.01 Bohr mag/cell

     iteration # 14     ecut=    50.00 Ry     beta= 0.01
     Davidson diagonalization with overlap

---- Real-time Memory Report at c_bands before calling an iterative solver
          1158 MiB given to the printing process from OS
           682 MiB allocation reported by mallinfo(arena+hblkhd)
        230144 MiB available memory on the node where the printing process lives
------------------
     ethr =  8.13E-11,  avg # of iterations =  1.0

     negative rho (up, down):  5.322E-03 5.322E-03

     total cpu time spent up to now is     1211.3 secs

     total energy              =  -12271.35570917 Ry
     estimated scf accuracy    <       0.00000054 Ry

     total magnetization       =     0.01 Bohr mag/cell
     absolute magnetization    =     0.01 Bohr mag/cell

     iteration # 15     ecut=    50.00 Ry     beta= 0.01
     Davidson diagonalization with overlap

---- Real-time Memory Report at c_bands before calling an iterative solver
          1162 MiB given to the printing process from OS
           685 MiB allocation reported by mallinfo(arena+hblkhd)
        229947 MiB available memory on the node where the printing process lives
------------------
     ethr =  5.15E-11,  avg # of iterations =  1.5

     negative rho (up, down):  5.324E-03 5.324E-03

     total cpu time spent up to now is     1268.5 secs

     total energy              =  -12271.35570918 Ry
     estimated scf accuracy    <       0.00000048 Ry

     total magnetization       =     0.01 Bohr mag/cell
     absolute magnetization    =     0.01 Bohr mag/cell

     iteration # 16     ecut=    50.00 Ry     beta= 0.01
     Davidson diagonalization with overlap

---- Real-time Memory Report at c_bands before calling an iterative solver
          1165 MiB given to the printing process from OS
           689 MiB allocation reported by mallinfo(arena+hblkhd)
        229656 MiB available memory on the node where the printing process lives
------------------
     ethr =  4.57E-11,  avg # of iterations =  1.5

     negative rho (up, down):  5.328E-03 5.328E-03

     total cpu time spent up to now is     1324.1 secs

     total energy              =  -12271.35570922 Ry
     estimated scf accuracy    <       0.00000041 Ry

     total magnetization       =     0.01 Bohr mag/cell
     absolute magnetization    =     0.01 Bohr mag/cell

     iteration # 17     ecut=    50.00 Ry     beta= 0.01
     Davidson diagonalization with overlap

---- Real-time Memory Report at c_bands before calling an iterative solver
          1169 MiB given to the printing process from OS
           692 MiB allocation reported by mallinfo(arena+hblkhd)
        229504 MiB available memory on the node where the printing process lives
------------------
     ethr =  3.90E-11,  avg # of iterations =  2.0

     negative rho (up, down):  5.329E-03 5.329E-03

     total cpu time spent up to now is     1382.3 secs

     total energy              =  -12271.35570925 Ry
     estimated scf accuracy    <       0.00000043 Ry

     total magnetization       =     0.01 Bohr mag/cell
     absolute magnetization    =     0.01 Bohr mag/cell

     iteration # 18     ecut=    50.00 Ry     beta= 0.01
     Davidson diagonalization with overlap

---- Real-time Memory Report at c_bands before calling an iterative solver
          1172 MiB given to the printing process from OS
           695 MiB allocation reported by mallinfo(arena+hblkhd)
        229274 MiB available memory on the node where the printing process lives
------------------
     ethr =  3.90E-11,  avg # of iterations =  1.4

     negative rho (up, down):  5.329E-03 5.329E-03

     total cpu time spent up to now is     1438.0 secs

     total energy              =  -12271.35570924 Ry
     estimated scf accuracy    <       0.00000044 Ry

     total magnetization       =     0.01 Bohr mag/cell
     absolute magnetization    =     0.01 Bohr mag/cell

     iteration # 19     ecut=    50.00 Ry     beta= 0.01
     Davidson diagonalization with overlap

---- Real-time Memory Report at c_bands before calling an iterative solver
          1175 MiB given to the printing process from OS
           699 MiB allocation reported by mallinfo(arena+hblkhd)
        229187 MiB available memory on the node where the printing process lives
------------------
     ethr =  3.90E-11,  avg # of iterations =  1.0

     negative rho (up, down):  5.334E-03 5.335E-03

     total cpu time spent up to now is     1489.8 secs

     total energy              =  -12271.35570921 Ry
     estimated scf accuracy    <       0.00000040 Ry

     total magnetization       =     0.01 Bohr mag/cell
     absolute magnetization    =     0.01 Bohr mag/cell

     iteration # 20     ecut=    50.00 Ry     beta= 0.01
     Davidson diagonalization with overlap

---- Real-time Memory Report at c_bands before calling an iterative solver
          1179 MiB given to the printing process from OS
           702 MiB allocation reported by mallinfo(arena+hblkhd)
        228731 MiB available memory on the node where the printing process lives
------------------
     ethr =  3.85E-11,  avg # of iterations =  1.0

     negative rho (up, down):  5.332E-03 5.332E-03

     total cpu time spent up to now is     1542.6 secs

     total energy              =  -12271.35570922 Ry
     estimated scf accuracy    <       0.00000031 Ry

     total magnetization       =     0.01 Bohr mag/cell
     absolute magnetization    =     0.01 Bohr mag/cell

     iteration # 21     ecut=    50.00 Ry     beta= 0.01
     Davidson diagonalization with overlap

---- Real-time Memory Report at c_bands before calling an iterative solver
          1182 MiB given to the printing process from OS
           706 MiB allocation reported by mallinfo(arena+hblkhd)
        228242 MiB available memory on the node where the printing process lives
------------------
     ethr =  3.00E-11,  avg # of iterations =  1.0

     negative rho (up, down):  5.331E-03 5.331E-03

     total cpu time spent up to now is     1594.3 secs

     total energy              =  -12271.35570923 Ry
     estimated scf accuracy    <       0.00000031 Ry

     total magnetization       =     0.01 Bohr mag/cell
     absolute magnetization    =     0.01 Bohr mag/cell

     iteration # 22     ecut=    50.00 Ry     beta= 0.01
     Davidson diagonalization with overlap

---- Real-time Memory Report at c_bands before calling an iterative solver
          1186 MiB given to the printing process from OS
           709 MiB allocation reported by mallinfo(arena+hblkhd)
        228385 MiB available memory on the node where the printing process lives
------------------
     ethr =  2.91E-11,  avg # of iterations =  1.0

     negative rho (up, down):  5.338E-03 5.338E-03

     total cpu time spent up to now is     1648.5 secs

     total energy              =  -12271.35570923 Ry
     estimated scf accuracy    <       0.00000032 Ry

     total magnetization       =     0.01 Bohr mag/cell
     absolute magnetization    =     0.01 Bohr mag/cell

     iteration # 23     ecut=    50.00 Ry     beta= 0.01
     Davidson diagonalization with overlap

---- Real-time Memory Report at c_bands before calling an iterative solver
          1192 MiB given to the printing process from OS
           709 MiB allocation reported by mallinfo(arena+hblkhd)
        227794 MiB available memory on the node where the printing process lives
------------------
     ethr =  2.91E-11,  avg # of iterations =  2.0

     negative rho (up, down):  5.338E-03 5.338E-03

     total cpu time spent up to now is     1710.5 secs

     total energy              =  -12271.35570926 Ry
     estimated scf accuracy    <       0.00000028 Ry

     total magnetization       =     0.01 Bohr mag/cell
     absolute magnetization    =     0.01 Bohr mag/cell

     iteration # 24     ecut=    50.00 Ry     beta= 0.01
     Davidson diagonalization with overlap

---- Real-time Memory Report at c_bands before calling an iterative solver
          1192 MiB given to the printing process from OS
           709 MiB allocation reported by mallinfo(arena+hblkhd)
        227811 MiB available memory on the node where the printing process lives
------------------
     ethr =  2.69E-11,  avg # of iterations =  1.6

     negative rho (up, down):  5.344E-03 5.344E-03

     total cpu time spent up to now is     1768.8 secs

     total energy              =  -12271.35570928 Ry
     estimated scf accuracy    <       0.00000029 Ry

     total magnetization       =     0.01 Bohr mag/cell
     absolute magnetization    =     0.01 Bohr mag/cell

     iteration # 25     ecut=    50.00 Ry     beta= 0.01
     Davidson diagonalization with overlap

---- Real-time Memory Report at c_bands before calling an iterative solver
          1192 MiB given to the printing process from OS
           709 MiB allocation reported by mallinfo(arena+hblkhd)
        228153 MiB available memory on the node where the printing process lives
------------------
     ethr =  2.69E-11,  avg # of iterations =  1.0

     negative rho (up, down):  5.353E-03 5.353E-03

     total cpu time spent up to now is     1820.0 secs

     total energy              =  -12271.35570929 Ry
     estimated scf accuracy    <       0.00000022 Ry

     total magnetization       =     0.02 Bohr mag/cell
     absolute magnetization    =     0.02 Bohr mag/cell

     iteration # 26     ecut=    50.00 Ry     beta= 0.01
     Davidson diagonalization with overlap

---- Real-time Memory Report at c_bands before calling an iterative solver
          1192 MiB given to the printing process from OS
           709 MiB allocation reported by mallinfo(arena+hblkhd)
        228289 MiB available memory on the node where the printing process lives
------------------
     ethr =  2.11E-11,  avg # of iterations =  2.0

     negative rho (up, down):  5.354E-03 5.354E-03

     total cpu time spent up to now is     1878.1 secs

     total energy              =  -12271.35570932 Ry
     estimated scf accuracy    <       0.00000014 Ry

     total magnetization       =     0.02 Bohr mag/cell
     absolute magnetization    =     0.02 Bohr mag/cell

     iteration # 27     ecut=    50.00 Ry     beta= 0.01
     Davidson diagonalization with overlap

---- Real-time Memory Report at c_bands before calling an iterative solver
          1192 MiB given to the printing process from OS
           709 MiB allocation reported by mallinfo(arena+hblkhd)
        228181 MiB available memory on the node where the printing process lives
------------------
     ethr =  1.37E-11,  avg # of iterations =  1.5

     negative rho (up, down):  5.363E-03 5.363E-03

     total cpu time spent up to now is     1934.6 secs

     total energy              =  -12271.35570937 Ry
     estimated scf accuracy    <       0.00000014 Ry

     total magnetization       =     0.02 Bohr mag/cell
     absolute magnetization    =     0.02 Bohr mag/cell

     iteration # 28     ecut=    50.00 Ry     beta= 0.01
     Davidson diagonalization with overlap

---- Real-time Memory Report at c_bands before calling an iterative solver
          1193 MiB given to the printing process from OS
           709 MiB allocation reported by mallinfo(arena+hblkhd)
        227986 MiB available memory on the node where the printing process lives
------------------
     ethr =  1.30E-11,  avg # of iterations =  2.0

     negative rho (up, down):  5.368E-03 5.368E-03

     total cpu time spent up to now is     1994.2 secs

     total energy              =  -12271.35570942 Ry
     estimated scf accuracy    <       0.00000011 Ry

     total magnetization       =     0.02 Bohr mag/cell
     absolute magnetization    =     0.02 Bohr mag/cell

     iteration # 29     ecut=    50.00 Ry     beta= 0.01
     Davidson diagonalization with overlap

---- Real-time Memory Report at c_bands before calling an iterative solver
          1193 MiB given to the printing process from OS
           709 MiB allocation reported by mallinfo(arena+hblkhd)
        228265 MiB available memory on the node where the printing process lives
------------------
     ethr =  1.02E-11,  avg # of iterations =  1.6

     negative rho (up, down):  5.369E-03 5.369E-03

     total cpu time spent up to now is     2052.4 secs

     total energy              =  -12271.35570943 Ry
     estimated scf accuracy    <       0.00000011 Ry

     total magnetization       =     0.03 Bohr mag/cell
     absolute magnetization    =     0.03 Bohr mag/cell

     iteration # 30     ecut=    50.00 Ry     beta= 0.01
     Davidson diagonalization with overlap

---- Real-time Memory Report at c_bands before calling an iterative solver
          1193 MiB given to the printing process from OS
           709 MiB allocation reported by mallinfo(arena+hblkhd)
        228241 MiB available memory on the node where the printing process lives
------------------
     ethr =  1.02E-11,  avg # of iterations =  1.0

     negative rho (up, down):  5.374E-03 5.374E-03

     total cpu time spent up to now is     2104.1 secs

     total energy              =  -12271.35570946 Ry
     estimated scf accuracy    <       0.00000011 Ry

     total magnetization       =     0.03 Bohr mag/cell
     absolute magnetization    =     0.03 Bohr mag/cell

     iteration # 31     ecut=    50.00 Ry     beta= 0.01
     Davidson diagonalization with overlap

---- Real-time Memory Report at c_bands before calling an iterative solver
          1193 MiB given to the printing process from OS
           709 MiB allocation reported by mallinfo(arena+hblkhd)
        228241 MiB available memory on the node where the printing process lives
------------------
     ethr =  1.02E-11,  avg # of iterations =  2.0

     negative rho (up, down):  5.376E-03 5.376E-03

     total cpu time spent up to now is     2165.4 secs

     total energy              =  -12271.35570951 Ry
     estimated scf accuracy    <       0.00000008 Ry

     total magnetization       =     0.03 Bohr mag/cell
     absolute magnetization    =     0.03 Bohr mag/cell

     iteration # 32     ecut=    50.00 Ry     beta= 0.01
     Davidson diagonalization with overlap

---- Real-time Memory Report at c_bands before calling an iterative solver
          1193 MiB given to the printing process from OS
           709 MiB allocation reported by mallinfo(arena+hblkhd)
        228242 MiB available memory on the node where the printing process lives
------------------
     ethr =  8.09E-12,  avg # of iterations =  1.0

     negative rho (up, down):  5.375E-03 5.375E-03

     total cpu time spent up to now is     2216.8 secs

     total energy              =  -12271.35570951 Ry
     estimated scf accuracy    <       0.00000009 Ry

     total magnetization       =     0.03 Bohr mag/cell
     absolute magnetization    =     0.03 Bohr mag/cell

     iteration # 33     ecut=    50.00 Ry     beta= 0.01
     Davidson diagonalization with overlap

---- Real-time Memory Report at c_bands before calling an iterative solver
          1193 MiB given to the printing process from OS
           709 MiB allocation reported by mallinfo(arena+hblkhd)
        228104 MiB available memory on the node where the printing process lives
------------------
     ethr =  8.09E-12,  avg # of iterations =  1.0

     negative rho (up, down):  5.376E-03 5.376E-03

     total cpu time spent up to now is     2268.1 secs

     total energy              =  -12271.35570953 Ry
     estimated scf accuracy    <       0.00000010 Ry

     total magnetization       =     0.03 Bohr mag/cell
     absolute magnetization    =     0.03 Bohr mag/cell

     iteration # 34     ecut=    50.00 Ry     beta= 0.01
     Davidson diagonalization with overlap

---- Real-time Memory Report at c_bands before calling an iterative solver
          1193 MiB given to the printing process from OS
           709 MiB allocation reported by mallinfo(arena+hblkhd)
        228254 MiB available memory on the node where the printing process lives
------------------
     ethr =  8.09E-12,  avg # of iterations =  2.0

     negative rho (up, down):  5.375E-03 5.375E-03

     total cpu time spent up to now is     2327.7 secs

     total energy              =  -12271.35570956 Ry
     estimated scf accuracy    <       0.00000006 Ry

     total magnetization       =     0.04 Bohr mag/cell
     absolute magnetization    =     0.04 Bohr mag/cell

     iteration # 35     ecut=    50.00 Ry     beta= 0.01
     Davidson diagonalization with overlap

---- Real-time Memory Report at c_bands before calling an iterative solver
          1193 MiB given to the printing process from OS
           709 MiB allocation reported by mallinfo(arena+hblkhd)
        228187 MiB available memory on the node where the printing process lives
------------------
     ethr =  6.19E-12,  avg # of iterations =  1.9

     negative rho (up, down):  5.375E-03 5.376E-03

     total cpu time spent up to now is     2384.2 secs

     total energy              =  -12271.35570956 Ry
     estimated scf accuracy    <       0.00000007 Ry

     total magnetization       =     0.04 Bohr mag/cell
     absolute magnetization    =     0.04 Bohr mag/cell

     iteration # 36     ecut=    50.00 Ry     beta= 0.01
     Davidson diagonalization with overlap

---- Real-time Memory Report at c_bands before calling an iterative solver
          1193 MiB given to the printing process from OS
           709 MiB allocation reported by mallinfo(arena+hblkhd)
        228183 MiB available memory on the node where the printing process lives
------------------
     ethr =  6.19E-12,  avg # of iterations =  1.0

     negative rho (up, down):  5.376E-03 5.376E-03

     total cpu time spent up to now is     2435.3 secs

     total energy              =  -12271.35570958 Ry
     estimated scf accuracy    <       0.00000007 Ry

     total magnetization       =     0.04 Bohr mag/cell
     absolute magnetization    =     0.04 Bohr mag/cell

     iteration # 37     ecut=    50.00 Ry     beta= 0.01
     Davidson diagonalization with overlap

---- Real-time Memory Report at c_bands before calling an iterative solver
          1193 MiB given to the printing process from OS
           709 MiB allocation reported by mallinfo(arena+hblkhd)
        228175 MiB available memory on the node where the printing process lives
------------------
     ethr =  6.19E-12,  avg # of iterations =  1.0

     negative rho (up, down):  5.376E-03 5.376E-03

     total cpu time spent up to now is     2491.0 secs

     total energy              =  -12271.35570959 Ry
     estimated scf accuracy    <       0.00000006 Ry

     total magnetization       =     0.04 Bohr mag/cell
     absolute magnetization    =     0.04 Bohr mag/cell

     iteration # 38     ecut=    50.00 Ry     beta= 0.01
     Davidson diagonalization with overlap

---- Real-time Memory Report at c_bands before calling an iterative solver
          1193 MiB given to the printing process from OS
           709 MiB allocation reported by mallinfo(arena+hblkhd)
        228344 MiB available memory on the node where the printing process lives
------------------
     ethr =  6.14E-12,  avg # of iterations =  1.1

     negative rho (up, down):  5.375E-03 5.375E-03

     total cpu time spent up to now is     2545.1 secs

     total energy              =  -12271.35570960 Ry
     estimated scf accuracy    <       0.00000006 Ry

     total magnetization       =     0.04 Bohr mag/cell
     absolute magnetization    =     0.04 Bohr mag/cell

     iteration # 39     ecut=    50.00 Ry     beta= 0.01
     Davidson diagonalization with overlap

---- Real-time Memory Report at c_bands before calling an iterative solver
          1193 MiB given to the printing process from OS
           709 MiB allocation reported by mallinfo(arena+hblkhd)
        228236 MiB available memory on the node where the printing process lives
------------------
     ethr =  5.35E-12,  avg # of iterations =  1.0

     negative rho (up, down):  5.375E-03 5.375E-03

     total cpu time spent up to now is     2600.5 secs

     total energy              =  -12271.35570961 Ry
     estimated scf accuracy    <       0.00000006 Ry

     total magnetization       =     0.04 Bohr mag/cell
     absolute magnetization    =     0.04 Bohr mag/cell

     iteration # 40     ecut=    50.00 Ry     beta= 0.01
     Davidson diagonalization with overlap

---- Real-time Memory Report at c_bands before calling an iterative solver
          1193 MiB given to the printing process from OS
           709 MiB allocation reported by mallinfo(arena+hblkhd)
        228022 MiB available memory on the node where the printing process lives
------------------
     ethr =  5.35E-12,  avg # of iterations =  1.1

     negative rho (up, down):  5.375E-03 5.375E-03

     total cpu time spent up to now is     2655.4 secs

     total energy              =  -12271.35570961 Ry
     estimated scf accuracy    <       0.00000005 Ry

     total magnetization       =     0.04 Bohr mag/cell
     absolute magnetization    =     0.05 Bohr mag/cell

     iteration # 41     ecut=    50.00 Ry     beta= 0.01
     Davidson diagonalization with overlap

---- Real-time Memory Report at c_bands before calling an iterative solver
          1195 MiB given to the printing process from OS
           709 MiB allocation reported by mallinfo(arena+hblkhd)
        228208 MiB available memory on the node where the printing process lives
------------------
     ethr =  4.70E-12,  avg # of iterations =  1.0

     negative rho (up, down):  5.373E-03 5.373E-03

     total cpu time spent up to now is     2707.2 secs

     total energy              =  -12271.35570964 Ry
     estimated scf accuracy    <       0.00000005 Ry

     total magnetization       =     0.04 Bohr mag/cell
     absolute magnetization    =     0.05 Bohr mag/cell

     iteration # 42     ecut=    50.00 Ry     beta= 0.01
     Davidson diagonalization with overlap

---- Real-time Memory Report at c_bands before calling an iterative solver
          1195 MiB given to the printing process from OS
           709 MiB allocation reported by mallinfo(arena+hblkhd)
        228241 MiB available memory on the node where the printing process lives
------------------
     ethr =  4.70E-12,  avg # of iterations =  2.0

     negative rho (up, down):  5.373E-03 5.373E-03

     total cpu time spent up to now is     2766.3 secs

     total energy              =  -12271.35570966 Ry
     estimated scf accuracy    <       0.00000005 Ry

     total magnetization       =     0.05 Bohr mag/cell
     absolute magnetization    =     0.05 Bohr mag/cell

     iteration # 43     ecut=    50.00 Ry     beta= 0.01
     Davidson diagonalization with overlap

---- Real-time Memory Report at c_bands before calling an iterative solver
          1195 MiB given to the printing process from OS
           709 MiB allocation reported by mallinfo(arena+hblkhd)
        228095 MiB available memory on the node where the printing process lives
------------------
     ethr =  4.65E-12,  avg # of iterations =  1.0

     negative rho (up, down):  5.374E-03 5.374E-03

     total cpu time spent up to now is     2817.5 secs

     total energy              =  -12271.35570965 Ry
     estimated scf accuracy    <       0.00000005 Ry

     total magnetization       =     0.05 Bohr mag/cell
     absolute magnetization    =     0.05 Bohr mag/cell

     iteration # 44     ecut=    50.00 Ry     beta= 0.01
     Davidson diagonalization with overlap

---- Real-time Memory Report at c_bands before calling an iterative solver
          1195 MiB given to the printing process from OS
           709 MiB allocation reported by mallinfo(arena+hblkhd)
        227977 MiB available memory on the node where the printing process lives
------------------
     ethr =  4.65E-12,  avg # of iterations =  1.0

     negative rho (up, down):  5.374E-03 5.374E-03

     total cpu time spent up to now is     2868.6 secs

     total energy              =  -12271.35570967 Ry
     estimated scf accuracy    <       0.00000005 Ry

     total magnetization       =     0.05 Bohr mag/cell
     absolute magnetization    =     0.05 Bohr mag/cell

     iteration # 45     ecut=    50.00 Ry     beta= 0.01
     Davidson diagonalization with overlap

---- Real-time Memory Report at c_bands before calling an iterative solver
          1195 MiB given to the printing process from OS
           709 MiB allocation reported by mallinfo(arena+hblkhd)
        228086 MiB available memory on the node where the printing process lives
------------------
     ethr =  4.65E-12,  avg # of iterations =  1.0

     negative rho (up, down):  5.374E-03 5.374E-03

     total cpu time spent up to now is     2919.4 secs

     total energy              =  -12271.35570967 Ry
     estimated scf accuracy    <       0.00000005 Ry

     total magnetization       =     0.05 Bohr mag/cell
     absolute magnetization    =     0.05 Bohr mag/cell

     iteration # 46     ecut=    50.00 Ry     beta= 0.01
     Davidson diagonalization with overlap

---- Real-time Memory Report at c_bands before calling an iterative solver
          1195 MiB given to the printing process from OS
           709 MiB allocation reported by mallinfo(arena+hblkhd)
        228289 MiB available memory on the node where the printing process lives
------------------
     ethr =  4.65E-12,  avg # of iterations =  1.0

     negative rho (up, down):  5.373E-03 5.373E-03

     total cpu time spent up to now is     2971.4 secs

     total energy              =  -12271.35570968 Ry
     estimated scf accuracy    <       0.00000005 Ry

     total magnetization       =     0.05 Bohr mag/cell
     absolute magnetization    =     0.05 Bohr mag/cell

     iteration # 47     ecut=    50.00 Ry     beta= 0.01
     Davidson diagonalization with overlap

---- Real-time Memory Report at c_bands before calling an iterative solver
          1195 MiB given to the printing process from OS
           709 MiB allocation reported by mallinfo(arena+hblkhd)
        228262 MiB available memory on the node where the printing process lives
------------------
     ethr =  4.64E-12,  avg # of iterations =  1.0

     negative rho (up, down):  5.372E-03 5.372E-03

     total cpu time spent up to now is     3022.8 secs

     total energy              =  -12271.35570970 Ry
     estimated scf accuracy    <       0.00000005 Ry

     total magnetization       =     0.05 Bohr mag/cell
     absolute magnetization    =     0.05 Bohr mag/cell

     iteration # 48     ecut=    50.00 Ry     beta= 0.01
     Davidson diagonalization with overlap

---- Real-time Memory Report at c_bands before calling an iterative solver
          1195 MiB given to the printing process from OS
           709 MiB allocation reported by mallinfo(arena+hblkhd)
        228110 MiB available memory on the node where the printing process lives
------------------
     ethr =  4.51E-12,  avg # of iterations =  1.0

     negative rho (up, down):  5.373E-03 5.373E-03

     total cpu time spent up to now is     3073.4 secs

     total energy              =  -12271.35570969 Ry
     estimated scf accuracy    <       0.00000005 Ry

     total magnetization       =     0.05 Bohr mag/cell
     absolute magnetization    =     0.05 Bohr mag/cell

     iteration # 49     ecut=    50.00 Ry     beta= 0.01
     Davidson diagonalization with overlap

---- Real-time Memory Report at c_bands before calling an iterative solver
          1195 MiB given to the printing process from OS
           709 MiB allocation reported by mallinfo(arena+hblkhd)
        228224 MiB available memory on the node where the printing process lives
------------------
     ethr =  4.47E-12,  avg # of iterations =  1.0

     negative rho (up, down):  5.372E-03 5.373E-03

     total cpu time spent up to now is     3124.9 secs

     total energy              =  -12271.35570967 Ry
     estimated scf accuracy    <       0.00000005 Ry

     total magnetization       =     0.05 Bohr mag/cell
     absolute magnetization    =     0.05 Bohr mag/cell

     iteration # 50     ecut=    50.00 Ry     beta= 0.01
     Davidson diagonalization with overlap

---- Real-time Memory Report at c_bands before calling an iterative solver
          1195 MiB given to the printing process from OS
           709 MiB allocation reported by mallinfo(arena+hblkhd)
        228409 MiB available memory on the node where the printing process lives
------------------
     ethr =  4.47E-12,  avg # of iterations =  1.0

     negative rho (up, down):  5.373E-03 5.373E-03

     total cpu time spent up to now is     3176.3 secs

     total energy              =  -12271.35570964 Ry
     estimated scf accuracy    <       0.00000005 Ry

     total magnetization       =     0.05 Bohr mag/cell
     absolute magnetization    =     0.05 Bohr mag/cell

     iteration # 51     ecut=    50.00 Ry     beta= 0.01
     Davidson diagonalization with overlap

---- Real-time Memory Report at c_bands before calling an iterative solver
          1195 MiB given to the printing process from OS
           709 MiB allocation reported by mallinfo(arena+hblkhd)
        228288 MiB available memory on the node where the printing process lives
------------------
     ethr =  4.41E-12,  avg # of iterations =  1.0

     negative rho (up, down):  5.372E-03 5.372E-03

     total cpu time spent up to now is     3227.5 secs

     total energy              =  -12271.35570966 Ry
     estimated scf accuracy    <       0.00000005 Ry

     total magnetization       =     0.05 Bohr mag/cell
     absolute magnetization    =     0.05 Bohr mag/cell

     iteration # 52     ecut=    50.00 Ry     beta= 0.01
     Davidson diagonalization with overlap

---- Real-time Memory Report at c_bands before calling an iterative solver
          1195 MiB given to the printing process from OS
           709 MiB allocation reported by mallinfo(arena+hblkhd)
        228251 MiB available memory on the node where the printing process lives
------------------
     ethr =  4.41E-12,  avg # of iterations =  1.0

     negative rho (up, down):  5.372E-03 5.373E-03

     total cpu time spent up to now is     3277.8 secs

     total energy              =  -12271.35570964 Ry
     estimated scf accuracy    <       0.00000005 Ry

     total magnetization       =     0.05 Bohr mag/cell
     absolute magnetization    =     0.05 Bohr mag/cell

     iteration # 53     ecut=    50.00 Ry     beta= 0.01
     Davidson diagonalization with overlap

---- Real-time Memory Report at c_bands before calling an iterative solver
          1195 MiB given to the printing process from OS
           709 MiB allocation reported by mallinfo(arena+hblkhd)
        228082 MiB available memory on the node where the printing process lives
------------------
     ethr =  4.38E-12,  avg # of iterations =  1.0

     negative rho (up, down):  5.372E-03 5.372E-03

     total cpu time spent up to now is     3328.5 secs

     total energy              =  -12271.35570965 Ry
     estimated scf accuracy    <       0.00000005 Ry

     total magnetization       =     0.05 Bohr mag/cell
     absolute magnetization    =     0.05 Bohr mag/cell

     iteration # 54     ecut=    50.00 Ry     beta= 0.01
     Davidson diagonalization with overlap

---- Real-time Memory Report at c_bands before calling an iterative solver
          1195 MiB given to the printing process from OS
           709 MiB allocation reported by mallinfo(arena+hblkhd)
        228056 MiB available memory on the node where the printing process lives
------------------
     ethr =  4.36E-12,  avg # of iterations =  1.0

     negative rho (up, down):  5.373E-03 5.373E-03

     total cpu time spent up to now is     3379.7 secs

     total energy              =  -12271.35570964 Ry
     estimated scf accuracy    <       0.00000005 Ry

     total magnetization       =     0.05 Bohr mag/cell
     absolute magnetization    =     0.05 Bohr mag/cell

     iteration # 55     ecut=    50.00 Ry     beta= 0.01
     Davidson diagonalization with overlap

---- Real-time Memory Report at c_bands before calling an iterative solver
          1196 MiB given to the printing process from OS
           709 MiB allocation reported by mallinfo(arena+hblkhd)
        228015 MiB available memory on the node where the printing process lives
------------------
     ethr =  4.35E-12,  avg # of iterations =  1.0

     negative rho (up, down):  5.372E-03 5.372E-03

     total cpu time spent up to now is     3434.0 secs

     total energy              =  -12271.35570964 Ry
     estimated scf accuracy    <       0.00000005 Ry

     total magnetization       =     0.05 Bohr mag/cell
     absolute magnetization    =     0.05 Bohr mag/cell

     iteration # 56     ecut=    50.00 Ry     beta= 0.01
     Davidson diagonalization with overlap

---- Real-time Memory Report at c_bands before calling an iterative solver
          1196 MiB given to the printing process from OS
           709 MiB allocation reported by mallinfo(arena+hblkhd)
        228244 MiB available memory on the node where the printing process lives
------------------
     ethr =  4.35E-12,  avg # of iterations =  1.0

     negative rho (up, down):  5.373E-03 5.373E-03

     total cpu time spent up to now is     3485.0 secs

     total energy              =  -12271.35570964 Ry
     estimated scf accuracy    <       0.00000005 Ry

     total magnetization       =     0.05 Bohr mag/cell
     absolute magnetization    =     0.05 Bohr mag/cell

     iteration # 57     ecut=    50.00 Ry     beta= 0.01
     Davidson diagonalization with overlap

---- Real-time Memory Report at c_bands before calling an iterative solver
          1196 MiB given to the printing process from OS
           709 MiB allocation reported by mallinfo(arena+hblkhd)
        228471 MiB available memory on the node where the printing process lives
------------------
     ethr =  4.35E-12,  avg # of iterations =  1.0

     negative rho (up, down):  5.372E-03 5.372E-03

     total cpu time spent up to now is     3539.9 secs

     total energy              =  -12271.35570964 Ry
     estimated scf accuracy    <       0.00000005 Ry

     total magnetization       =     0.05 Bohr mag/cell
     absolute magnetization    =     0.05 Bohr mag/cell

     iteration # 58     ecut=    50.00 Ry     beta= 0.01
     Davidson diagonalization with overlap

---- Real-time Memory Report at c_bands before calling an iterative solver
          1196 MiB given to the printing process from OS
           709 MiB allocation reported by mallinfo(arena+hblkhd)
        228063 MiB available memory on the node where the printing process lives
------------------
     ethr =  4.35E-12,  avg # of iterations =  1.0

     negative rho (up, down):  5.372E-03 5.372E-03

     total cpu time spent up to now is     3595.6 secs

     total energy              =  -12271.35570964 Ry
     estimated scf accuracy    <       0.00000005 Ry

     total magnetization       =     0.05 Bohr mag/cell
     absolute magnetization    =     0.05 Bohr mag/cell

     iteration # 59     ecut=    50.00 Ry     beta= 0.01
     Davidson diagonalization with overlap

---- Real-time Memory Report at c_bands before calling an iterative solver
          1196 MiB given to the printing process from OS
           709 MiB allocation reported by mallinfo(arena+hblkhd)
        227802 MiB available memory on the node where the printing process lives
------------------
     ethr =  4.35E-12,  avg # of iterations =  1.0

     negative rho (up, down):  5.372E-03 5.372E-03

     total cpu time spent up to now is     3645.7 secs

     total energy              =  -12271.35570964 Ry
     estimated scf accuracy    <       0.00000005 Ry

     total magnetization       =     0.05 Bohr mag/cell
     absolute magnetization    =     0.05 Bohr mag/cell

     iteration # 60     ecut=    50.00 Ry     beta= 0.01
     Davidson diagonalization with overlap

---- Real-time Memory Report at c_bands before calling an iterative solver
          1196 MiB given to the printing process from OS
           709 MiB allocation reported by mallinfo(arena+hblkhd)
        227942 MiB available memory on the node where the printing process lives
------------------
     ethr =  4.35E-12,  avg # of iterations =  1.0

     negative rho (up, down):  5.372E-03 5.372E-03

     total cpu time spent up to now is     3697.2 secs

     total energy              =  -12271.35570965 Ry
     estimated scf accuracy    <       0.00000005 Ry

     total magnetization       =     0.05 Bohr mag/cell
     absolute magnetization    =     0.05 Bohr mag/cell

     iteration # 61     ecut=    50.00 Ry     beta= 0.01
     Davidson diagonalization with overlap

---- Real-time Memory Report at c_bands before calling an iterative solver
          1196 MiB given to the printing process from OS
           709 MiB allocation reported by mallinfo(arena+hblkhd)
        228288 MiB available memory on the node where the printing process lives
------------------
     ethr =  4.35E-12,  avg # of iterations =  1.0

     negative rho (up, down):  5.372E-03 5.372E-03

     total cpu time spent up to now is     3748.0 secs

     total energy              =  -12271.35570966 Ry
     estimated scf accuracy    <       0.00000005 Ry

     total magnetization       =     0.05 Bohr mag/cell
     absolute magnetization    =     0.05 Bohr mag/cell

     iteration # 62     ecut=    50.00 Ry     beta= 0.01
     Davidson diagonalization with overlap

---- Real-time Memory Report at c_bands before calling an iterative solver
          1196 MiB given to the printing process from OS
           709 MiB allocation reported by mallinfo(arena+hblkhd)
        228419 MiB available memory on the node where the printing process lives
------------------
     ethr =  4.35E-12,  avg # of iterations =  1.0

     negative rho (up, down):  5.372E-03 5.372E-03

     total cpu time spent up to now is     3799.1 secs

     total energy              =  -12271.35570963 Ry
     estimated scf accuracy    <       0.00000005 Ry

     total magnetization       =     0.05 Bohr mag/cell
     absolute magnetization    =     0.05 Bohr mag/cell

     iteration # 63     ecut=    50.00 Ry     beta= 0.01
     Davidson diagonalization with overlap

---- Real-time Memory Report at c_bands before calling an iterative solver
          1196 MiB given to the printing process from OS
           709 MiB allocation reported by mallinfo(arena+hblkhd)
        228485 MiB available memory on the node where the printing process lives
------------------
     ethr =  4.35E-12,  avg # of iterations =  1.0

     negative rho (up, down):  5.372E-03 5.372E-03

     total cpu time spent up to now is     3849.5 secs

     total energy              =  -12271.35570962 Ry
     estimated scf accuracy    <       0.00000005 Ry

     total magnetization       =     0.05 Bohr mag/cell
     absolute magnetization    =     0.05 Bohr mag/cell

     iteration # 64     ecut=    50.00 Ry     beta= 0.01
     Davidson diagonalization with overlap

---- Real-time Memory Report at c_bands before calling an iterative solver
          1196 MiB given to the printing process from OS
           709 MiB allocation reported by mallinfo(arena+hblkhd)
        227977 MiB available memory on the node where the printing process lives
------------------
     ethr =  4.35E-12,  avg # of iterations =  1.0

     negative rho (up, down):  5.372E-03 5.372E-03

     total cpu time spent up to now is     3901.0 secs

     total energy              =  -12271.35570963 Ry
     estimated scf accuracy    <       0.00000005 Ry

     total magnetization       =     0.04 Bohr mag/cell
     absolute magnetization    =     0.05 Bohr mag/cell

     iteration # 65     ecut=    50.00 Ry     beta= 0.01
     Davidson diagonalization with overlap

---- Real-time Memory Report at c_bands before calling an iterative solver
          1196 MiB given to the printing process from OS
           709 MiB allocation reported by mallinfo(arena+hblkhd)
        228377 MiB available memory on the node where the printing process lives
------------------
     ethr =  4.35E-12,  avg # of iterations =  1.0

     negative rho (up, down):  5.372E-03 5.372E-03

     total cpu time spent up to now is     3953.7 secs

     total energy              =  -12271.35570960 Ry
     estimated scf accuracy    <       0.00000005 Ry

     total magnetization       =     0.05 Bohr mag/cell
     absolute magnetization    =     0.05 Bohr mag/cell

     iteration # 66     ecut=    50.00 Ry     beta= 0.01
     Davidson diagonalization with overlap

---- Real-time Memory Report at c_bands before calling an iterative solver
          1196 MiB given to the printing process from OS
           709 MiB allocation reported by mallinfo(arena+hblkhd)
        228166 MiB available memory on the node where the printing process lives
------------------
     ethr =  4.35E-12,  avg # of iterations =  1.0

     negative rho (up, down):  5.373E-03 5.373E-03

     total cpu time spent up to now is     4004.0 secs

     total energy              =  -12271.35570963 Ry
     estimated scf accuracy    <       0.00000005 Ry

     total magnetization       =     0.04 Bohr mag/cell
     absolute magnetization    =     0.05 Bohr mag/cell

     iteration # 67     ecut=    50.00 Ry     beta= 0.01
     Davidson diagonalization with overlap

---- Real-time Memory Report at c_bands before calling an iterative solver
          1196 MiB given to the printing process from OS
           709 MiB allocation reported by mallinfo(arena+hblkhd)
        228376 MiB available memory on the node where the printing process lives
------------------
     ethr =  4.35E-12,  avg # of iterations =  1.0

     negative rho (up, down):  5.373E-03 5.373E-03

     total cpu time spent up to now is     4054.9 secs

     total energy              =  -12271.35570962 Ry
     estimated scf accuracy    <       0.00000005 Ry

     total magnetization       =     0.05 Bohr mag/cell
     absolute magnetization    =     0.05 Bohr mag/cell

     iteration # 68     ecut=    50.00 Ry     beta= 0.01
     Davidson diagonalization with overlap

---- Real-time Memory Report at c_bands before calling an iterative solver
          1196 MiB given to the printing process from OS
           709 MiB allocation reported by mallinfo(arena+hblkhd)
        228304 MiB available memory on the node where the printing process lives
------------------
     ethr =  4.33E-12,  avg # of iterations =  1.0

     negative rho (up, down):  5.372E-03 5.372E-03

     total cpu time spent up to now is     4105.7 secs

     total energy              =  -12271.35570961 Ry
     estimated scf accuracy    <       0.00000005 Ry

     total magnetization       =     0.05 Bohr mag/cell
     absolute magnetization    =     0.05 Bohr mag/cell

     iteration # 69     ecut=    50.00 Ry     beta= 0.01
     Davidson diagonalization with overlap

---- Real-time Memory Report at c_bands before calling an iterative solver
          1196 MiB given to the printing process from OS
           709 MiB allocation reported by mallinfo(arena+hblkhd)
        228035 MiB available memory on the node where the printing process lives
------------------
     ethr =  4.33E-12,  avg # of iterations =  1.0

     negative rho (up, down):  5.372E-03 5.372E-03

     total cpu time spent up to now is     4156.8 secs

     total energy              =  -12271.35570962 Ry
     estimated scf accuracy    <       0.00000005 Ry

     total magnetization       =     0.04 Bohr mag/cell
     absolute magnetization    =     0.05 Bohr mag/cell

     iteration # 70     ecut=    50.00 Ry     beta= 0.01
     Davidson diagonalization with overlap

---- Real-time Memory Report at c_bands before calling an iterative solver
          1196 MiB given to the printing process from OS
           709 MiB allocation reported by mallinfo(arena+hblkhd)
        228367 MiB available memory on the node where the printing process lives
------------------
     ethr =  4.33E-12,  avg # of iterations =  1.0

     negative rho (up, down):  5.373E-03 5.373E-03

     total cpu time spent up to now is     4207.9 secs

     total energy              =  -12271.35570962 Ry
     estimated scf accuracy    <       0.00000005 Ry

     total magnetization       =     0.05 Bohr mag/cell
     absolute magnetization    =     0.05 Bohr mag/cell

     iteration # 71     ecut=    50.00 Ry     beta= 0.01
     Davidson diagonalization with overlap

---- Real-time Memory Report at c_bands before calling an iterative solver
          1196 MiB given to the printing process from OS
           709 MiB allocation reported by mallinfo(arena+hblkhd)
        228337 MiB available memory on the node where the printing process lives
------------------
     ethr =  4.33E-12,  avg # of iterations =  1.0

     negative rho (up, down):  5.372E-03 5.372E-03

     total cpu time spent up to now is     4259.2 secs

     total energy              =  -12271.35570963 Ry
     estimated scf accuracy    <       0.00000005 Ry

     total magnetization       =     0.05 Bohr mag/cell
     absolute magnetization    =     0.05 Bohr mag/cell

     iteration # 72     ecut=    50.00 Ry     beta= 0.01
     Davidson diagonalization with overlap

---- Real-time Memory Report at c_bands before calling an iterative solver
          1196 MiB given to the printing process from OS
           709 MiB allocation reported by mallinfo(arena+hblkhd)
        228240 MiB available memory on the node where the printing process lives
------------------
     ethr =  4.33E-12,  avg # of iterations =  1.0

     negative rho (up, down):  5.372E-03 5.372E-03

     total cpu time spent up to now is     4311.2 secs

     total energy              =  -12271.35570962 Ry
     estimated scf accuracy    <       0.00000005 Ry

     total magnetization       =     0.05 Bohr mag/cell
     absolute magnetization    =     0.05 Bohr mag/cell

     iteration # 73     ecut=    50.00 Ry     beta= 0.01
     Davidson diagonalization with overlap

---- Real-time Memory Report at c_bands before calling an iterative solver
          1196 MiB given to the printing process from OS
           709 MiB allocation reported by mallinfo(arena+hblkhd)
        228307 MiB available memory on the node where the printing process lives
------------------
     ethr =  4.33E-12,  avg # of iterations =  1.0

     negative rho (up, down):  5.372E-03 5.372E-03

     total cpu time spent up to now is     4365.8 secs

     total energy              =  -12271.35570962 Ry
     estimated scf accuracy    <       0.00000005 Ry

     total magnetization       =     0.05 Bohr mag/cell
     absolute magnetization    =     0.05 Bohr mag/cell

     iteration # 74     ecut=    50.00 Ry     beta= 0.01
     Davidson diagonalization with overlap

---- Real-time Memory Report at c_bands before calling an iterative solver
          1196 MiB given to the printing process from OS
           709 MiB allocation reported by mallinfo(arena+hblkhd)
        228066 MiB available memory on the node where the printing process lives
------------------
     ethr =  4.33E-12,  avg # of iterations =  1.0

     negative rho (up, down):  5.372E-03 5.372E-03

     total cpu time spent up to now is     4416.9 secs

     total energy              =  -12271.35570960 Ry
     estimated scf accuracy    <       0.00000005 Ry

     total magnetization       =     0.05 Bohr mag/cell
     absolute magnetization    =     0.05 Bohr mag/cell

     iteration # 75     ecut=    50.00 Ry     beta= 0.01
     Davidson diagonalization with overlap

---- Real-time Memory Report at c_bands before calling an iterative solver
          1196 MiB given to the printing process from OS
           709 MiB allocation reported by mallinfo(arena+hblkhd)
        228127 MiB available memory on the node where the printing process lives
------------------
     ethr =  4.33E-12,  avg # of iterations =  1.1

     negative rho (up, down):  5.373E-03 5.373E-03

     total cpu time spent up to now is     4471.0 secs

     total energy              =  -12271.35570956 Ry
     estimated scf accuracy    <       0.00000005 Ry

     total magnetization       =     0.04 Bohr mag/cell
     absolute magnetization    =     0.05 Bohr mag/cell

     iteration # 76     ecut=    50.00 Ry     beta= 0.01
     Davidson diagonalization with overlap

---- Real-time Memory Report at c_bands before calling an iterative solver
          1196 MiB given to the printing process from OS
           709 MiB allocation reported by mallinfo(arena+hblkhd)
        228267 MiB available memory on the node where the printing process lives
------------------
     ethr =  4.33E-12,  avg # of iterations =  2.0

     negative rho (up, down):  5.373E-03 5.373E-03

     total cpu time spent up to now is     4531.7 secs

     total energy              =  -12271.35570957 Ry
     estimated scf accuracy    <       0.00000005 Ry

     total magnetization       =     0.04 Bohr mag/cell
     absolute magnetization    =     0.04 Bohr mag/cell

     iteration # 77     ecut=    50.00 Ry     beta= 0.01
     Davidson diagonalization with overlap

---- Real-time Memory Report at c_bands before calling an iterative solver
          1196 MiB given to the printing process from OS
           709 MiB allocation reported by mallinfo(arena+hblkhd)
        227814 MiB available memory on the node where the printing process lives
------------------
     ethr =  4.30E-12,  avg # of iterations =  1.0

     negative rho (up, down):  5.373E-03 5.373E-03

     total cpu time spent up to now is     4583.6 secs

     total energy              =  -12271.35570957 Ry
     estimated scf accuracy    <       0.00000005 Ry

     total magnetization       =     0.04 Bohr mag/cell
     absolute magnetization    =     0.04 Bohr mag/cell

     iteration # 78     ecut=    50.00 Ry     beta= 0.01
     Davidson diagonalization with overlap

---- Real-time Memory Report at c_bands before calling an iterative solver
          1196 MiB given to the printing process from OS
           709 MiB allocation reported by mallinfo(arena+hblkhd)
        228050 MiB available memory on the node where the printing process lives
------------------
     ethr =  4.30E-12,  avg # of iterations =  1.0

     negative rho (up, down):  5.373E-03 5.373E-03

     total cpu time spent up to now is     4633.7 secs

     total energy              =  -12271.35570958 Ry
     estimated scf accuracy    <       0.00000005 Ry

     total magnetization       =     0.04 Bohr mag/cell
     absolute magnetization    =     0.04 Bohr mag/cell

     iteration # 79     ecut=    50.00 Ry     beta= 0.01
     Davidson diagonalization with overlap

---- Real-time Memory Report at c_bands before calling an iterative solver
          1196 MiB given to the printing process from OS
           709 MiB allocation reported by mallinfo(arena+hblkhd)
        227951 MiB available memory on the node where the printing process lives
------------------
     ethr =  4.30E-12,  avg # of iterations =  1.0

     negative rho (up, down):  5.373E-03 5.373E-03

     total cpu time spent up to now is     4685.5 secs

     total energy              =  -12271.35570959 Ry
     estimated scf accuracy    <       0.00000005 Ry

     total magnetization       =     0.04 Bohr mag/cell
     absolute magnetization    =     0.04 Bohr mag/cell

     iteration # 80     ecut=    50.00 Ry     beta= 0.01
     Davidson diagonalization with overlap

---- Real-time Memory Report at c_bands before calling an iterative solver
          1196 MiB given to the printing process from OS
           709 MiB allocation reported by mallinfo(arena+hblkhd)
        228003 MiB available memory on the node where the printing process lives
------------------
     ethr =  4.30E-12,  avg # of iterations =  1.0

     negative rho (up, down):  5.374E-03 5.374E-03

     total cpu time spent up to now is     4736.8 secs

     total energy              =  -12271.35570958 Ry
     estimated scf accuracy    <       0.00000005 Ry

     total magnetization       =     0.04 Bohr mag/cell
     absolute magnetization    =     0.04 Bohr mag/cell

     iteration # 81     ecut=    50.00 Ry     beta= 0.01
     Davidson diagonalization with overlap

---- Real-time Memory Report at c_bands before calling an iterative solver
          1196 MiB given to the printing process from OS
           709 MiB allocation reported by mallinfo(arena+hblkhd)
        228163 MiB available memory on the node where the printing process lives
------------------
     ethr =  4.30E-12,  avg # of iterations =  1.0

     negative rho (up, down):  5.374E-03 5.374E-03

     total cpu time spent up to now is     4787.8 secs

     total energy              =  -12271.35570958 Ry
     estimated scf accuracy    <       0.00000004 Ry

     total magnetization       =     0.04 Bohr mag/cell
     absolute magnetization    =     0.04 Bohr mag/cell

     iteration # 82     ecut=    50.00 Ry     beta= 0.01
     Davidson diagonalization with overlap

---- Real-time Memory Report at c_bands before calling an iterative solver
          1196 MiB given to the printing process from OS
           709 MiB allocation reported by mallinfo(arena+hblkhd)
        228471 MiB available memory on the node where the printing process lives
------------------
     ethr =  4.28E-12,  avg # of iterations =  1.0

     negative rho (up, down):  5.374E-03 5.374E-03

     total cpu time spent up to now is     4838.0 secs

     total energy              =  -12271.35570957 Ry
     estimated scf accuracy    <       0.00000004 Ry

     total magnetization       =     0.04 Bohr mag/cell
     absolute magnetization    =     0.04 Bohr mag/cell

     iteration # 83     ecut=    50.00 Ry     beta= 0.01
     Davidson diagonalization with overlap

---- Real-time Memory Report at c_bands before calling an iterative solver
          1198 MiB given to the printing process from OS
           709 MiB allocation reported by mallinfo(arena+hblkhd)
        228419 MiB available memory on the node where the printing process lives
------------------
     ethr =  4.24E-12,  avg # of iterations =  1.0

     negative rho (up, down):  5.374E-03 5.374E-03

     total cpu time spent up to now is     4889.4 secs

     total energy              =  -12271.35570958 Ry
     estimated scf accuracy    <       0.00000004 Ry

     total magnetization       =     0.04 Bohr mag/cell
     absolute magnetization    =     0.04 Bohr mag/cell

     iteration # 84     ecut=    50.00 Ry     beta= 0.01
     Davidson diagonalization with overlap

---- Real-time Memory Report at c_bands before calling an iterative solver
          1198 MiB given to the printing process from OS
           709 MiB allocation reported by mallinfo(arena+hblkhd)
        228282 MiB available memory on the node where the printing process lives
------------------
     ethr =  4.24E-12,  avg # of iterations =  1.0

     negative rho (up, down):  5.373E-03 5.373E-03

     total cpu time spent up to now is     4941.2 secs

     total energy              =  -12271.35570958 Ry
     estimated scf accuracy    <       0.00000004 Ry

     total magnetization       =     0.04 Bohr mag/cell
     absolute magnetization    =     0.04 Bohr mag/cell

     iteration # 85     ecut=    50.00 Ry     beta= 0.01
     Davidson diagonalization with overlap

---- Real-time Memory Report at c_bands before calling an iterative solver
          1198 MiB given to the printing process from OS
           709 MiB allocation reported by mallinfo(arena+hblkhd)
        228292 MiB available memory on the node where the printing process lives
------------------
     ethr =  4.24E-12,  avg # of iterations =  1.0

     negative rho (up, down):  5.373E-03 5.373E-03

     total cpu time spent up to now is     4991.4 secs

     total energy              =  -12271.35570958 Ry
     estimated scf accuracy    <       0.00000004 Ry

     total magnetization       =     0.04 Bohr mag/cell
     absolute magnetization    =     0.04 Bohr mag/cell

     iteration # 86     ecut=    50.00 Ry     beta= 0.01
     Davidson diagonalization with overlap

---- Real-time Memory Report at c_bands before calling an iterative solver
          1198 MiB given to the printing process from OS
           709 MiB allocation reported by mallinfo(arena+hblkhd)
        228281 MiB available memory on the node where the printing process lives
------------------
     ethr =  4.24E-12,  avg # of iterations =  1.0

     negative rho (up, down):  5.373E-03 5.373E-03

     total cpu time spent up to now is     5042.5 secs

     total energy              =  -12271.35570958 Ry
     estimated scf accuracy    <       0.00000004 Ry

     total magnetization       =     0.04 Bohr mag/cell
     absolute magnetization    =     0.04 Bohr mag/cell

     iteration # 87     ecut=    50.00 Ry     beta= 0.01
     Davidson diagonalization with overlap

---- Real-time Memory Report at c_bands before calling an iterative solver
          1198 MiB given to the printing process from OS
           709 MiB allocation reported by mallinfo(arena+hblkhd)
        227984 MiB available memory on the node where the printing process lives
------------------
     ethr =  4.24E-12,  avg # of iterations =  1.0

     negative rho (up, down):  5.373E-03 5.373E-03

     total cpu time spent up to now is     5094.7 secs

     total energy              =  -12271.35570958 Ry
     estimated scf accuracy    <       0.00000004 Ry

     total magnetization       =     0.04 Bohr mag/cell
     absolute magnetization    =     0.04 Bohr mag/cell

     iteration # 88     ecut=    50.00 Ry     beta= 0.01
     Davidson diagonalization with overlap

---- Real-time Memory Report at c_bands before calling an iterative solver
          1198 MiB given to the printing process from OS
           709 MiB allocation reported by mallinfo(arena+hblkhd)
        228230 MiB available memory on the node where the printing process lives
------------------
     ethr =  4.24E-12,  avg # of iterations =  1.0

     negative rho (up, down):  5.373E-03 5.373E-03

     total cpu time spent up to now is     5145.1 secs

     total energy              =  -12271.35570958 Ry
     estimated scf accuracy    <       0.00000004 Ry

     total magnetization       =     0.04 Bohr mag/cell
     absolute magnetization    =     0.04 Bohr mag/cell

     iteration # 89     ecut=    50.00 Ry     beta= 0.01
     Davidson diagonalization with overlap

---- Real-time Memory Report at c_bands before calling an iterative solver
          1198 MiB given to the printing process from OS
           709 MiB allocation reported by mallinfo(arena+hblkhd)
        228323 MiB available memory on the node where the printing process lives
------------------
     ethr =  4.23E-12,  avg # of iterations =  1.0

     negative rho (up, down):  5.373E-03 5.373E-03

     total cpu time spent up to now is     5195.9 secs

     total energy              =  -12271.35570959 Ry
     estimated scf accuracy    <       0.00000004 Ry

     total magnetization       =     0.04 Bohr mag/cell
     absolute magnetization    =     0.04 Bohr mag/cell

     iteration # 90     ecut=    50.00 Ry     beta= 0.01
     Davidson diagonalization with overlap

---- Real-time Memory Report at c_bands before calling an iterative solver
          1198 MiB given to the printing process from OS
           709 MiB allocation reported by mallinfo(arena+hblkhd)
        228218 MiB available memory on the node where the printing process lives
------------------
     ethr =  4.23E-12,  avg # of iterations =  1.0

     negative rho (up, down):  5.373E-03 5.373E-03

     total cpu time spent up to now is     5246.8 secs

     total energy              =  -12271.35570958 Ry
     estimated scf accuracy    <       0.00000004 Ry

     total magnetization       =     0.04 Bohr mag/cell
     absolute magnetization    =     0.04 Bohr mag/cell

     iteration # 91     ecut=    50.00 Ry     beta= 0.01
     Davidson diagonalization with overlap

---- Real-time Memory Report at c_bands before calling an iterative solver
          1198 MiB given to the printing process from OS
           709 MiB allocation reported by mallinfo(arena+hblkhd)
        228150 MiB available memory on the node where the printing process lives
------------------
     ethr =  4.23E-12,  avg # of iterations =  1.0

     negative rho (up, down):  5.373E-03 5.373E-03

     total cpu time spent up to now is     5304.0 secs

     total energy              =  -12271.35570959 Ry
     estimated scf accuracy    <       0.00000004 Ry

     total magnetization       =     0.04 Bohr mag/cell
     absolute magnetization    =     0.04 Bohr mag/cell

     iteration # 92     ecut=    50.00 Ry     beta= 0.01
     Davidson diagonalization with overlap

---- Real-time Memory Report at c_bands before calling an iterative solver
          1198 MiB given to the printing process from OS
           709 MiB allocation reported by mallinfo(arena+hblkhd)
        228279 MiB available memory on the node where the printing process lives
------------------
     ethr =  4.23E-12,  avg # of iterations =  1.0

     negative rho (up, down):  5.373E-03 5.373E-03

     total cpu time spent up to now is     5354.8 secs

     total energy              =  -12271.35570959 Ry
     estimated scf accuracy    <       0.00000004 Ry

     total magnetization       =     0.04 Bohr mag/cell
     absolute magnetization    =     0.04 Bohr mag/cell

     iteration # 93     ecut=    50.00 Ry     beta= 0.01
     Davidson diagonalization with overlap

---- Real-time Memory Report at c_bands before calling an iterative solver
          1198 MiB given to the printing process from OS
           709 MiB allocation reported by mallinfo(arena+hblkhd)
        228159 MiB available memory on the node where the printing process lives
------------------
     ethr =  4.23E-12,  avg # of iterations =  1.0

     negative rho (up, down):  5.373E-03 5.373E-03

     total cpu time spent up to now is     5408.8 secs

     total energy              =  -12271.35570958 Ry
     estimated scf accuracy    <       0.00000004 Ry

     total magnetization       =     0.04 Bohr mag/cell
     absolute magnetization    =     0.04 Bohr mag/cell

     iteration # 94     ecut=    50.00 Ry     beta= 0.01
     Davidson diagonalization with overlap

---- Real-time Memory Report at c_bands before calling an iterative solver
          1198 MiB given to the printing process from OS
           709 MiB allocation reported by mallinfo(arena+hblkhd)
        228030 MiB available memory on the node where the printing process lives
------------------
     ethr =  4.22E-12,  avg # of iterations =  1.0

     negative rho (up, down):  5.374E-03 5.374E-03

     total cpu time spent up to now is     5464.2 secs

     total energy              =  -12271.35570959 Ry
     estimated scf accuracy    <       0.00000004 Ry

     total magnetization       =     0.04 Bohr mag/cell
     absolute magnetization    =     0.04 Bohr mag/cell

     iteration # 95     ecut=    50.00 Ry     beta= 0.01
     Davidson diagonalization with overlap

---- Real-time Memory Report at c_bands before calling an iterative solver
          1198 MiB given to the printing process from OS
           709 MiB allocation reported by mallinfo(arena+hblkhd)
        228065 MiB available memory on the node where the printing process lives
------------------
     ethr =  4.22E-12,  avg # of iterations =  1.0

     negative rho (up, down):  5.374E-03 5.374E-03

     total cpu time spent up to now is     5515.8 secs

     total energy              =  -12271.35570958 Ry
     estimated scf accuracy    <       0.00000004 Ry

     total magnetization       =     0.04 Bohr mag/cell
     absolute magnetization    =     0.04 Bohr mag/cell

     iteration # 96     ecut=    50.00 Ry     beta= 0.01
     Davidson diagonalization with overlap

---- Real-time Memory Report at c_bands before calling an iterative solver
          1198 MiB given to the printing process from OS
           709 MiB allocation reported by mallinfo(arena+hblkhd)
        228155 MiB available memory on the node where the printing process lives
------------------
     ethr =  4.22E-12,  avg # of iterations =  1.0

     negative rho (up, down):  5.373E-03 5.374E-03

     total cpu time spent up to now is     5565.8 secs

     total energy              =  -12271.35570957 Ry
     estimated scf accuracy    <       0.00000004 Ry

     total magnetization       =     0.04 Bohr mag/cell
     absolute magnetization    =     0.04 Bohr mag/cell

     iteration # 97     ecut=    50.00 Ry     beta= 0.01
     Davidson diagonalization with overlap

---- Real-time Memory Report at c_bands before calling an iterative solver
          1198 MiB given to the printing process from OS
           709 MiB allocation reported by mallinfo(arena+hblkhd)
        228090 MiB available memory on the node where the printing process lives
------------------
     ethr =  4.22E-12,  avg # of iterations =  1.0

     negative rho (up, down):  5.374E-03 5.374E-03

     total cpu time spent up to now is     5616.9 secs

     total energy              =  -12271.35570958 Ry
     estimated scf accuracy    <       0.00000004 Ry

     total magnetization       =     0.04 Bohr mag/cell
     absolute magnetization    =     0.04 Bohr mag/cell

     iteration # 98     ecut=    50.00 Ry     beta= 0.01
     Davidson diagonalization with overlap

---- Real-time Memory Report at c_bands before calling an iterative solver
          1201 MiB given to the printing process from OS
           709 MiB allocation reported by mallinfo(arena+hblkhd)
        228191 MiB available memory on the node where the printing process lives
------------------
     ethr =  4.22E-12,  avg # of iterations =  1.0

     negative rho (up, down):  5.373E-03 5.373E-03

     total cpu time spent up to now is     5667.9 secs

     total energy              =  -12271.35570954 Ry
     estimated scf accuracy    <       0.00000004 Ry

     total magnetization       =     0.04 Bohr mag/cell
     absolute magnetization    =     0.04 Bohr mag/cell

     iteration # 99     ecut=    50.00 Ry     beta= 0.01
     Davidson diagonalization with overlap

---- Real-time Memory Report at c_bands before calling an iterative solver
          1201 MiB given to the printing process from OS
           709 MiB allocation reported by mallinfo(arena+hblkhd)
        228080 MiB available memory on the node where the printing process lives
------------------
     ethr =  4.22E-12,  avg # of iterations =  2.0

     negative rho (up, down):  5.373E-03 5.373E-03

     total cpu time spent up to now is     5725.3 secs

     total energy              =  -12271.35570956 Ry
     estimated scf accuracy    <       0.00000004 Ry

     total magnetization       =     0.04 Bohr mag/cell
     absolute magnetization    =     0.04 Bohr mag/cell

     iteration #100     ecut=    50.00 Ry     beta= 0.01
     Davidson diagonalization with overlap

---- Real-time Memory Report at c_bands before calling an iterative solver
          1201 MiB given to the printing process from OS
           709 MiB allocation reported by mallinfo(arena+hblkhd)
        228239 MiB available memory on the node where the printing process lives
------------------
     ethr =  4.15E-12,  avg # of iterations =  1.0

     negative rho (up, down):  5.373E-03 5.373E-03

     total cpu time spent up to now is     5775.6 secs

     total energy              =  -12271.35570957 Ry
     estimated scf accuracy    <       0.00000004 Ry

     total magnetization       =     0.04 Bohr mag/cell
     absolute magnetization    =     0.04 Bohr mag/cell

     iteration #101     ecut=    50.00 Ry     beta= 0.01
     Davidson diagonalization with overlap

---- Real-time Memory Report at c_bands before calling an iterative solver
          1201 MiB given to the printing process from OS
           709 MiB allocation reported by mallinfo(arena+hblkhd)
        227876 MiB available memory on the node where the printing process lives
------------------
     ethr =  4.12E-12,  avg # of iterations =  1.0

     negative rho (up, down):  5.373E-03 5.373E-03

     total cpu time spent up to now is     5827.2 secs

     total energy              =  -12271.35570958 Ry
     estimated scf accuracy    <       0.00000004 Ry

     total magnetization       =     0.04 Bohr mag/cell
     absolute magnetization    =     0.04 Bohr mag/cell

     iteration #102     ecut=    50.00 Ry     beta= 0.01
     Davidson diagonalization with overlap

---- Real-time Memory Report at c_bands before calling an iterative solver
          1201 MiB given to the printing process from OS
           709 MiB allocation reported by mallinfo(arena+hblkhd)
        228190 MiB available memory on the node where the printing process lives
------------------
     ethr =  4.12E-12,  avg # of iterations =  1.0

     negative rho (up, down):  5.373E-03 5.373E-03

     total cpu time spent up to now is     5878.9 secs

     total energy              =  -12271.35570958 Ry
     estimated scf accuracy    <       0.00000004 Ry

     total magnetization       =     0.04 Bohr mag/cell
     absolute magnetization    =     0.04 Bohr mag/cell

     iteration #103     ecut=    50.00 Ry     beta= 0.01
     Davidson diagonalization with overlap

---- Real-time Memory Report at c_bands before calling an iterative solver
          1201 MiB given to the printing process from OS
           709 MiB allocation reported by mallinfo(arena+hblkhd)
        228230 MiB available memory on the node where the printing process lives
------------------
     ethr =  4.12E-12,  avg # of iterations =  1.0

     negative rho (up, down):  5.373E-03 5.373E-03

     total cpu time spent up to now is     5930.2 secs

     total energy              =  -12271.35570956 Ry
     estimated scf accuracy    <       0.00000004 Ry

     total magnetization       =     0.04 Bohr mag/cell
     absolute magnetization    =     0.04 Bohr mag/cell

     iteration #104     ecut=    50.00 Ry     beta= 0.01
     Davidson diagonalization with overlap

---- Real-time Memory Report at c_bands before calling an iterative solver
          1201 MiB given to the printing process from OS
           709 MiB allocation reported by mallinfo(arena+hblkhd)
        228146 MiB available memory on the node where the printing process lives
------------------
     ethr =  4.12E-12,  avg # of iterations =  1.0

     negative rho (up, down):  5.373E-03 5.373E-03

     total cpu time spent up to now is     5981.1 secs

     total energy              =  -12271.35570957 Ry
     estimated scf accuracy    <       0.00000004 Ry

     total magnetization       =     0.04 Bohr mag/cell
     absolute magnetization    =     0.04 Bohr mag/cell

     iteration #105     ecut=    50.00 Ry     beta= 0.01
     Davidson diagonalization with overlap

---- Real-time Memory Report at c_bands before calling an iterative solver
          1201 MiB given to the printing process from OS
           709 MiB allocation reported by mallinfo(arena+hblkhd)
        228280 MiB available memory on the node where the printing process lives
------------------
     ethr =  4.12E-12,  avg # of iterations =  1.0

     negative rho (up, down):  5.373E-03 5.373E-03

     total cpu time spent up to now is     6032.6 secs

     total energy              =  -12271.35570957 Ry
     estimated scf accuracy    <       0.00000004 Ry

     total magnetization       =     0.04 Bohr mag/cell
     absolute magnetization    =     0.04 Bohr mag/cell

     iteration #106     ecut=    50.00 Ry     beta= 0.01
     Davidson diagonalization with overlap

---- Real-time Memory Report at c_bands before calling an iterative solver
          1201 MiB given to the printing process from OS
           709 MiB allocation reported by mallinfo(arena+hblkhd)
        227935 MiB available memory on the node where the printing process lives
------------------
     ethr =  4.12E-12,  avg # of iterations =  1.0

     negative rho (up, down):  5.373E-03 5.373E-03

     total cpu time spent up to now is     6084.7 secs

     total energy              =  -12271.35570956 Ry
     estimated scf accuracy    <       0.00000004 Ry

     total magnetization       =     0.04 Bohr mag/cell
     absolute magnetization    =     0.04 Bohr mag/cell

     iteration #107     ecut=    50.00 Ry     beta= 0.01
     Davidson diagonalization with overlap

---- Real-time Memory Report at c_bands before calling an iterative solver
          1201 MiB given to the printing process from OS
           709 MiB allocation reported by mallinfo(arena+hblkhd)
        228035 MiB available memory on the node where the printing process lives
------------------
     ethr =  4.11E-12,  avg # of iterations =  1.0

     negative rho (up, down):  5.373E-03 5.373E-03

     total cpu time spent up to now is     6134.7 secs

     total energy              =  -12271.35570956 Ry
     estimated scf accuracy    <       0.00000004 Ry

     total magnetization       =     0.04 Bohr mag/cell
     absolute magnetization    =     0.04 Bohr mag/cell

     iteration #108     ecut=    50.00 Ry     beta= 0.01
     Davidson diagonalization with overlap

---- Real-time Memory Report at c_bands before calling an iterative solver
          1201 MiB given to the printing process from OS
           709 MiB allocation reported by mallinfo(arena+hblkhd)
        227878 MiB available memory on the node where the printing process lives
------------------
     ethr =  4.10E-12,  avg # of iterations =  1.0

     negative rho (up, down):  5.373E-03 5.373E-03

     total cpu time spent up to now is     6185.9 secs

     total energy              =  -12271.35570956 Ry
     estimated scf accuracy    <       0.00000004 Ry

     total magnetization       =     0.04 Bohr mag/cell
     absolute magnetization    =     0.04 Bohr mag/cell

     iteration #109     ecut=    50.00 Ry     beta= 0.01
     Davidson diagonalization with overlap

---- Real-time Memory Report at c_bands before calling an iterative solver
          1201 MiB given to the printing process from OS
           709 MiB allocation reported by mallinfo(arena+hblkhd)
        228145 MiB available memory on the node where the printing process lives
------------------
     ethr =  4.10E-12,  avg # of iterations =  1.0

     negative rho (up, down):  5.372E-03 5.373E-03

     total cpu time spent up to now is     6243.4 secs

     total energy              =  -12271.35570956 Ry
     estimated scf accuracy    <       0.00000004 Ry

     total magnetization       =     0.04 Bohr mag/cell
     absolute magnetization    =     0.04 Bohr mag/cell

     iteration #110     ecut=    50.00 Ry     beta= 0.01
     Davidson diagonalization with overlap

---- Real-time Memory Report at c_bands before calling an iterative solver
          1201 MiB given to the printing process from OS
           709 MiB allocation reported by mallinfo(arena+hblkhd)
        228116 MiB available memory on the node where the printing process lives
------------------
     ethr =  4.10E-12,  avg # of iterations =  1.0

     negative rho (up, down):  5.372E-03 5.373E-03

     total cpu time spent up to now is     6295.1 secs

     total energy              =  -12271.35570955 Ry
     estimated scf accuracy    <       0.00000004 Ry

     total magnetization       =     0.04 Bohr mag/cell
     absolute magnetization    =     0.04 Bohr mag/cell

     iteration #111     ecut=    50.00 Ry     beta= 0.01
     Davidson diagonalization with overlap

---- Real-time Memory Report at c_bands before calling an iterative solver
          1201 MiB given to the printing process from OS
           709 MiB allocation reported by mallinfo(arena+hblkhd)
        228228 MiB available memory on the node where the printing process lives
------------------
     ethr =  4.09E-12,  avg # of iterations =  1.0

     negative rho (up, down):  5.372E-03 5.373E-03

     total cpu time spent up to now is     6349.8 secs

     total energy              =  -12271.35570955 Ry
     estimated scf accuracy    <       0.00000004 Ry

     total magnetization       =     0.04 Bohr mag/cell
     absolute magnetization    =     0.04 Bohr mag/cell

     iteration #112     ecut=    50.00 Ry     beta= 0.01
     Davidson diagonalization with overlap

---- Real-time Memory Report at c_bands before calling an iterative solver
          1201 MiB given to the printing process from OS
           709 MiB allocation reported by mallinfo(arena+hblkhd)
        227831 MiB available memory on the node where the printing process lives
------------------
     ethr =  4.09E-12,  avg # of iterations =  1.0

     negative rho (up, down):  5.373E-03 5.373E-03

     total cpu time spent up to now is     6406.8 secs

     total energy              =  -12271.35570955 Ry
     estimated scf accuracy    <       0.00000004 Ry

     total magnetization       =     0.04 Bohr mag/cell
     absolute magnetization    =     0.04 Bohr mag/cell

     iteration #113     ecut=    50.00 Ry     beta= 0.01
     Davidson diagonalization with overlap

---- Real-time Memory Report at c_bands before calling an iterative solver
          1201 MiB given to the printing process from OS
           709 MiB allocation reported by mallinfo(arena+hblkhd)
        228377 MiB available memory on the node where the printing process lives
------------------
     ethr =  4.09E-12,  avg # of iterations =  1.0

     negative rho (up, down):  5.374E-03 5.374E-03

     total cpu time spent up to now is     6457.5 secs

     total energy              =  -12271.35570955 Ry
     estimated scf accuracy    <       0.00000004 Ry

     total magnetization       =     0.04 Bohr mag/cell
     absolute magnetization    =     0.04 Bohr mag/cell

     iteration #114     ecut=    50.00 Ry     beta= 0.01
     Davidson diagonalization with overlap

---- Real-time Memory Report at c_bands before calling an iterative solver
          1201 MiB given to the printing process from OS
           709 MiB allocation reported by mallinfo(arena+hblkhd)
        227918 MiB available memory on the node where the printing process lives
------------------
     ethr =  4.09E-12,  avg # of iterations =  1.0

     negative rho (up, down):  5.374E-03 5.374E-03

     total cpu time spent up to now is     6508.2 secs

     total energy              =  -12271.35570956 Ry
     estimated scf accuracy    <       0.00000004 Ry

     total magnetization       =     0.04 Bohr mag/cell
     absolute magnetization    =     0.04 Bohr mag/cell

     iteration #115     ecut=    50.00 Ry     beta= 0.01
     Davidson diagonalization with overlap

---- Real-time Memory Report at c_bands before calling an iterative solver
          1201 MiB given to the printing process from OS
           709 MiB allocation reported by mallinfo(arena+hblkhd)
        228204 MiB available memory on the node where the printing process lives
------------------
     ethr =  4.09E-12,  avg # of iterations =  1.0

     negative rho (up, down):  5.374E-03 5.374E-03

     total cpu time spent up to now is     6559.2 secs

     total energy              =  -12271.35570954 Ry
     estimated scf accuracy    <       0.00000004 Ry

     total magnetization       =     0.04 Bohr mag/cell
     absolute magnetization    =     0.04 Bohr mag/cell

     iteration #116     ecut=    50.00 Ry     beta= 0.01
     Davidson diagonalization with overlap

---- Real-time Memory Report at c_bands before calling an iterative solver
          1201 MiB given to the printing process from OS
           709 MiB allocation reported by mallinfo(arena+hblkhd)
        228157 MiB available memory on the node where the printing process lives
------------------
     ethr =  4.09E-12,  avg # of iterations =  1.0

     negative rho (up, down):  5.374E-03 5.374E-03

     total cpu time spent up to now is     6610.1 secs

     total energy              =  -12271.35570954 Ry
     estimated scf accuracy    <       0.00000004 Ry

     total magnetization       =     0.04 Bohr mag/cell
     absolute magnetization    =     0.04 Bohr mag/cell

     iteration #117     ecut=    50.00 Ry     beta= 0.01
     Davidson diagonalization with overlap

---- Real-time Memory Report at c_bands before calling an iterative solver
          1201 MiB given to the printing process from OS
           709 MiB allocation reported by mallinfo(arena+hblkhd)
        228296 MiB available memory on the node where the printing process lives
------------------
     ethr =  4.09E-12,  avg # of iterations =  1.0

     negative rho (up, down):  5.374E-03 5.374E-03

     total cpu time spent up to now is     6662.2 secs

     total energy              =  -12271.35570955 Ry
     estimated scf accuracy    <       0.00000004 Ry

     total magnetization       =     0.04 Bohr mag/cell
     absolute magnetization    =     0.04 Bohr mag/cell

     iteration #118     ecut=    50.00 Ry     beta= 0.01
     Davidson diagonalization with overlap

---- Real-time Memory Report at c_bands before calling an iterative solver
          1201 MiB given to the printing process from OS
           709 MiB allocation reported by mallinfo(arena+hblkhd)
        228202 MiB available memory on the node where the printing process lives
------------------
     ethr =  4.09E-12,  avg # of iterations =  1.0

     negative rho (up, down):  5.374E-03 5.374E-03

     total cpu time spent up to now is     6714.1 secs

     total energy              =  -12271.35570956 Ry
     estimated scf accuracy    <       0.00000004 Ry

     total magnetization       =     0.04 Bohr mag/cell
     absolute magnetization    =     0.04 Bohr mag/cell

     iteration #119     ecut=    50.00 Ry     beta= 0.01
     Davidson diagonalization with overlap

---- Real-time Memory Report at c_bands before calling an iterative solver
          1201 MiB given to the printing process from OS
           709 MiB allocation reported by mallinfo(arena+hblkhd)
        228268 MiB available memory on the node where the printing process lives
------------------
     ethr =  4.09E-12,  avg # of iterations =  1.0

     negative rho (up, down):  5.374E-03 5.374E-03

     total cpu time spent up to now is     6764.3 secs

     total energy              =  -12271.35570956 Ry
     estimated scf accuracy    <       0.00000004 Ry

     total magnetization       =     0.04 Bohr mag/cell
     absolute magnetization    =     0.04 Bohr mag/cell

     iteration #120     ecut=    50.00 Ry     beta= 0.01
     Davidson diagonalization with overlap

---- Real-time Memory Report at c_bands before calling an iterative solver
          1201 MiB given to the printing process from OS
           709 MiB allocation reported by mallinfo(arena+hblkhd)
        228214 MiB available memory on the node where the printing process lives
------------------
     ethr =  4.09E-12,  avg # of iterations =  1.0

     negative rho (up, down):  5.374E-03 5.375E-03

     total cpu time spent up to now is     6815.7 secs

     total energy              =  -12271.35570956 Ry
     estimated scf accuracy    <       0.00000004 Ry

     total magnetization       =     0.04 Bohr mag/cell
     absolute magnetization    =     0.04 Bohr mag/cell

     iteration #121     ecut=    50.00 Ry     beta= 0.01
     Davidson diagonalization with overlap

---- Real-time Memory Report at c_bands before calling an iterative solver
          1201 MiB given to the printing process from OS
           709 MiB allocation reported by mallinfo(arena+hblkhd)
        227882 MiB available memory on the node where the printing process lives
------------------
     ethr =  4.09E-12,  avg # of iterations =  1.0

     negative rho (up, down):  5.374E-03 5.374E-03

     total cpu time spent up to now is     6866.5 secs

     total energy              =  -12271.35570955 Ry
     estimated scf accuracy    <       0.00000004 Ry

     total magnetization       =     0.04 Bohr mag/cell
     absolute magnetization    =     0.04 Bohr mag/cell

     iteration #122     ecut=    50.00 Ry     beta= 0.01
     Davidson diagonalization with overlap

---- Real-time Memory Report at c_bands before calling an iterative solver
          1201 MiB given to the printing process from OS
           709 MiB allocation reported by mallinfo(arena+hblkhd)
        227938 MiB available memory on the node where the printing process lives
------------------
     ethr =  4.09E-12,  avg # of iterations =  1.0

     negative rho (up, down):  5.374E-03 5.374E-03

     total cpu time spent up to now is     6917.3 secs

     total energy              =  -12271.35570955 Ry
     estimated scf accuracy    <       0.00000004 Ry

     total magnetization       =     0.04 Bohr mag/cell
     absolute magnetization    =     0.04 Bohr mag/cell

     iteration #123     ecut=    50.00 Ry     beta= 0.01
     Davidson diagonalization with overlap

---- Real-time Memory Report at c_bands before calling an iterative solver
          1201 MiB given to the printing process from OS
           709 MiB allocation reported by mallinfo(arena+hblkhd)
        228257 MiB available memory on the node where the printing process lives
------------------
     ethr =  4.09E-12,  avg # of iterations =  1.0

     negative rho (up, down):  5.374E-03 5.374E-03

     total cpu time spent up to now is     6967.7 secs

     total energy              =  -12271.35570955 Ry
     estimated scf accuracy    <       0.00000004 Ry

     total magnetization       =     0.04 Bohr mag/cell
     absolute magnetization    =     0.04 Bohr mag/cell

     iteration #124     ecut=    50.00 Ry     beta= 0.01
     Davidson diagonalization with overlap

---- Real-time Memory Report at c_bands before calling an iterative solver
          1201 MiB given to the printing process from OS
           709 MiB allocation reported by mallinfo(arena+hblkhd)
        228061 MiB available memory on the node where the printing process lives
------------------
     ethr =  4.09E-12,  avg # of iterations =  1.0

     negative rho (up, down):  5.374E-03 5.374E-03

     total cpu time spent up to now is     7019.0 secs

     total energy              =  -12271.35570954 Ry
     estimated scf accuracy    <       0.00000004 Ry

     total magnetization       =     0.04 Bohr mag/cell
     absolute magnetization    =     0.04 Bohr mag/cell

     iteration #125     ecut=    50.00 Ry     beta= 0.01
     Davidson diagonalization with overlap

---- Real-time Memory Report at c_bands before calling an iterative solver
          1201 MiB given to the printing process from OS
           709 MiB allocation reported by mallinfo(arena+hblkhd)
        228250 MiB available memory on the node where the printing process lives
------------------
     ethr =  4.09E-12,  avg # of iterations =  1.0

     negative rho (up, down):  5.374E-03 5.374E-03

     total cpu time spent up to now is     7071.1 secs

     total energy              =  -12271.35570953 Ry
     estimated scf accuracy    <       0.00000004 Ry

     total magnetization       =     0.03 Bohr mag/cell
     absolute magnetization    =     0.04 Bohr mag/cell

     iteration #126     ecut=    50.00 Ry     beta= 0.01
     Davidson diagonalization with overlap

---- Real-time Memory Report at c_bands before calling an iterative solver
          1201 MiB given to the printing process from OS
           709 MiB allocation reported by mallinfo(arena+hblkhd)
        228205 MiB available memory on the node where the printing process lives
------------------
     ethr =  4.09E-12,  avg # of iterations =  1.0

     negative rho (up, down):  5.374E-03 5.374E-03

     total cpu time spent up to now is     7122.5 secs

     total energy              =  -12271.35570955 Ry
     estimated scf accuracy    <       0.00000004 Ry

     total magnetization       =     0.03 Bohr mag/cell
     absolute magnetization    =     0.04 Bohr mag/cell

     iteration #127     ecut=    50.00 Ry     beta= 0.01
     Davidson diagonalization with overlap

---- Real-time Memory Report at c_bands before calling an iterative solver
          1201 MiB given to the printing process from OS
           709 MiB allocation reported by mallinfo(arena+hblkhd)
        227984 MiB available memory on the node where the printing process lives
------------------
     ethr =  4.09E-12,  avg # of iterations =  1.1

     negative rho (up, down):  5.374E-03 5.374E-03

     total cpu time spent up to now is     7179.6 secs

     total energy              =  -12271.35570953 Ry
     estimated scf accuracy    <       0.00000004 Ry

     total magnetization       =     0.04 Bohr mag/cell
     absolute magnetization    =     0.04 Bohr mag/cell

     iteration #128     ecut=    50.00 Ry     beta= 0.01
     Davidson diagonalization with overlap

---- Real-time Memory Report at c_bands before calling an iterative solver
          1201 MiB given to the printing process from OS
           709 MiB allocation reported by mallinfo(arena+hblkhd)
        227938 MiB available memory on the node where the printing process lives
------------------
     ethr =  4.09E-12,  avg # of iterations =  1.1

     negative rho (up, down):  5.374E-03 5.374E-03

     total cpu time spent up to now is     7233.1 secs

     total energy              =  -12271.35570954 Ry
     estimated scf accuracy    <       0.00000004 Ry

     total magnetization       =     0.03 Bohr mag/cell
     absolute magnetization    =     0.04 Bohr mag/cell

     iteration #129     ecut=    50.00 Ry     beta= 0.01
     Davidson diagonalization with overlap

---- Real-time Memory Report at c_bands before calling an iterative solver
          1201 MiB given to the printing process from OS
           709 MiB allocation reported by mallinfo(arena+hblkhd)
        228289 MiB available memory on the node where the printing process lives
------------------
     ethr =  4.09E-12,  avg # of iterations =  1.0

     negative rho (up, down):  5.374E-03 5.374E-03

     total cpu time spent up to now is     7287.5 secs

     total energy              =  -12271.35570953 Ry
     estimated scf accuracy    <       0.00000004 Ry

     total magnetization       =     0.03 Bohr mag/cell
     absolute magnetization    =     0.04 Bohr mag/cell

     iteration #130     ecut=    50.00 Ry     beta= 0.01
     Davidson diagonalization with overlap

---- Real-time Memory Report at c_bands before calling an iterative solver
          1201 MiB given to the printing process from OS
           709 MiB allocation reported by mallinfo(arena+hblkhd)
        227873 MiB available memory on the node where the printing process lives
------------------
     ethr =  4.09E-12,  avg # of iterations =  1.0

     negative rho (up, down):  5.374E-03 5.374E-03

     total cpu time spent up to now is     7341.4 secs

     total energy              =  -12271.35570954 Ry
     estimated scf accuracy    <       0.00000004 Ry

     total magnetization       =     0.03 Bohr mag/cell
     absolute magnetization    =     0.04 Bohr mag/cell

     iteration #131     ecut=    50.00 Ry     beta= 0.01
     Davidson diagonalization with overlap

---- Real-time Memory Report at c_bands before calling an iterative solver
          1204 MiB given to the printing process from OS
           709 MiB allocation reported by mallinfo(arena+hblkhd)
        228086 MiB available memory on the node where the printing process lives
------------------
     ethr =  4.09E-12,  avg # of iterations =  1.0

     negative rho (up, down):  5.374E-03 5.374E-03

     total cpu time spent up to now is     7391.5 secs

     total energy              =  -12271.35570954 Ry
     estimated scf accuracy    <       0.00000004 Ry

     total magnetization       =     0.03 Bohr mag/cell
     absolute magnetization    =     0.04 Bohr mag/cell

     iteration #132     ecut=    50.00 Ry     beta= 0.01
     Davidson diagonalization with overlap

---- Real-time Memory Report at c_bands before calling an iterative solver
          1204 MiB given to the printing process from OS
           709 MiB allocation reported by mallinfo(arena+hblkhd)
        228021 MiB available memory on the node where the printing process lives
------------------
     ethr =  4.09E-12,  avg # of iterations =  1.0

     negative rho (up, down):  5.374E-03 5.374E-03

     total cpu time spent up to now is     7442.8 secs

     total energy              =  -12271.35570953 Ry
     estimated scf accuracy    <       0.00000004 Ry

     total magnetization       =     0.03 Bohr mag/cell
     absolute magnetization    =     0.04 Bohr mag/cell

     iteration #133     ecut=    50.00 Ry     beta= 0.01
     Davidson diagonalization with overlap

---- Real-time Memory Report at c_bands before calling an iterative solver
          1204 MiB given to the printing process from OS
           709 MiB allocation reported by mallinfo(arena+hblkhd)
        228103 MiB available memory on the node where the printing process lives
------------------
     ethr =  4.09E-12,  avg # of iterations =  1.0

     negative rho (up, down):  5.372E-03 5.372E-03

     total cpu time spent up to now is     7494.6 secs

     total energy              =  -12271.35570952 Ry
     estimated scf accuracy    <       0.00000004 Ry

     total magnetization       =     0.03 Bohr mag/cell
     absolute magnetization    =     0.04 Bohr mag/cell

     iteration #134     ecut=    50.00 Ry     beta= 0.01
     Davidson diagonalization with overlap

---- Real-time Memory Report at c_bands before calling an iterative solver
          1204 MiB given to the printing process from OS
           709 MiB allocation reported by mallinfo(arena+hblkhd)
        228149 MiB available memory on the node where the printing process lives
------------------
     ethr =  4.09E-12,  avg # of iterations =  1.0

     negative rho (up, down):  5.373E-03 5.373E-03

     total cpu time spent up to now is     7545.1 secs

     total energy              =  -12271.35570951 Ry
     estimated scf accuracy    <       0.00000004 Ry

     total magnetization       =     0.03 Bohr mag/cell
     absolute magnetization    =     0.03 Bohr mag/cell

     iteration #135     ecut=    50.00 Ry     beta= 0.01
     Davidson diagonalization with overlap

---- Real-time Memory Report at c_bands before calling an iterative solver
          1204 MiB given to the printing process from OS
           709 MiB allocation reported by mallinfo(arena+hblkhd)
        228324 MiB available memory on the node where the printing process lives
------------------
     ethr =  4.09E-12,  avg # of iterations =  1.0

     negative rho (up, down):  5.374E-03 5.374E-03

     total cpu time spent up to now is     7596.2 secs

     total energy              =  -12271.35570951 Ry
     estimated scf accuracy    <       0.00000005 Ry

     total magnetization       =     0.03 Bohr mag/cell
     absolute magnetization    =     0.03 Bohr mag/cell

     iteration #136     ecut=    50.00 Ry     beta= 0.01
     Davidson diagonalization with overlap

---- Real-time Memory Report at c_bands before calling an iterative solver
          1204 MiB given to the printing process from OS
           709 MiB allocation reported by mallinfo(arena+hblkhd)
        228232 MiB available memory on the node where the printing process lives
------------------
     ethr =  4.09E-12,  avg # of iterations =  1.0

     negative rho (up, down):  5.374E-03 5.374E-03

     total cpu time spent up to now is     7647.1 secs

     total energy              =  -12271.35570952 Ry
     estimated scf accuracy    <       0.00000005 Ry

     total magnetization       =     0.03 Bohr mag/cell
     absolute magnetization    =     0.03 Bohr mag/cell

     iteration #137     ecut=    50.00 Ry     beta= 0.01
     Davidson diagonalization with overlap

---- Real-time Memory Report at c_bands before calling an iterative solver
          1204 MiB given to the printing process from OS
           709 MiB allocation reported by mallinfo(arena+hblkhd)
        228265 MiB available memory on the node where the printing process lives
------------------
     ethr =  4.09E-12,  avg # of iterations =  1.0

     negative rho (up, down):  5.374E-03 5.374E-03

     total cpu time spent up to now is     7698.1 secs

     total energy              =  -12271.35570949 Ry
     estimated scf accuracy    <       0.00000005 Ry

     total magnetization       =     0.03 Bohr mag/cell
     absolute magnetization    =     0.03 Bohr mag/cell

     iteration #138     ecut=    50.00 Ry     beta= 0.01
     Davidson diagonalization with overlap

---- Real-time Memory Report at c_bands before calling an iterative solver
          1204 MiB given to the printing process from OS
           709 MiB allocation reported by mallinfo(arena+hblkhd)
        228334 MiB available memory on the node where the printing process lives
------------------
     ethr =  4.09E-12,  avg # of iterations =  2.0

     negative rho (up, down):  5.374E-03 5.374E-03

     total cpu time spent up to now is     7754.9 secs

     total energy              =  -12271.35570949 Ry
     estimated scf accuracy    <       0.00000005 Ry

     total magnetization       =     0.03 Bohr mag/cell
     absolute magnetization    =     0.03 Bohr mag/cell

     iteration #139     ecut=    50.00 Ry     beta= 0.01
     Davidson diagonalization with overlap

---- Real-time Memory Report at c_bands before calling an iterative solver
          1204 MiB given to the printing process from OS
           709 MiB allocation reported by mallinfo(arena+hblkhd)
        228283 MiB available memory on the node where the printing process lives
------------------
     ethr =  4.09E-12,  avg # of iterations =  1.0

     negative rho (up, down):  5.374E-03 5.374E-03

     total cpu time spent up to now is     7806.6 secs

     total energy              =  -12271.35570950 Ry
     estimated scf accuracy    <       0.00000005 Ry

     total magnetization       =     0.03 Bohr mag/cell
     absolute magnetization    =     0.03 Bohr mag/cell

     iteration #140     ecut=    50.00 Ry     beta= 0.01
     Davidson diagonalization with overlap

---- Real-time Memory Report at c_bands before calling an iterative solver
          1204 MiB given to the printing process from OS
           709 MiB allocation reported by mallinfo(arena+hblkhd)
        228201 MiB available memory on the node where the printing process lives
------------------
     ethr =  4.09E-12,  avg # of iterations =  1.0

     negative rho (up, down):  5.372E-03 5.373E-03

     total cpu time spent up to now is     7857.9 secs

     total energy              =  -12271.35570949 Ry
     estimated scf accuracy    <       0.00000005 Ry

     total magnetization       =     0.03 Bohr mag/cell
     absolute magnetization    =     0.03 Bohr mag/cell

     iteration #141     ecut=    50.00 Ry     beta= 0.01
     Davidson diagonalization with overlap

---- Real-time Memory Report at c_bands before calling an iterative solver
          1204 MiB given to the printing process from OS
           709 MiB allocation reported by mallinfo(arena+hblkhd)
        228250 MiB available memory on the node where the printing process lives
------------------
     ethr =  4.09E-12,  avg # of iterations =  1.0

     negative rho (up, down):  5.373E-03 5.373E-03

     total cpu time spent up to now is     7909.0 secs

     total energy              =  -12271.35570948 Ry
     estimated scf accuracy    <       0.00000005 Ry

     total magnetization       =     0.03 Bohr mag/cell
     absolute magnetization    =     0.03 Bohr mag/cell

     iteration #142     ecut=    50.00 Ry     beta= 0.01
     Davidson diagonalization with overlap

---- Real-time Memory Report at c_bands before calling an iterative solver
          1204 MiB given to the printing process from OS
           709 MiB allocation reported by mallinfo(arena+hblkhd)
        228423 MiB available memory on the node where the printing process lives
------------------
     ethr =  4.09E-12,  avg # of iterations =  1.0

     negative rho (up, down):  5.373E-03 5.373E-03

     total cpu time spent up to now is     7959.6 secs

     total energy              =  -12271.35570949 Ry
     estimated scf accuracy    <       0.00000004 Ry

     total magnetization       =     0.03 Bohr mag/cell
     absolute magnetization    =     0.03 Bohr mag/cell

     iteration #143     ecut=    50.00 Ry     beta= 0.01
     Davidson diagonalization with overlap

---- Real-time Memory Report at c_bands before calling an iterative solver
          1204 MiB given to the printing process from OS
           709 MiB allocation reported by mallinfo(arena+hblkhd)
        227935 MiB available memory on the node where the printing process lives
------------------
     ethr =  4.09E-12,  avg # of iterations =  1.0

     negative rho (up, down):  5.373E-03 5.373E-03

     total cpu time spent up to now is     8011.8 secs

     total energy              =  -12271.35570947 Ry
     estimated scf accuracy    <       0.00000005 Ry

     total magnetization       =     0.03 Bohr mag/cell
     absolute magnetization    =     0.03 Bohr mag/cell

     iteration #144     ecut=    50.00 Ry     beta= 0.01
     Davidson diagonalization with overlap

---- Real-time Memory Report at c_bands before calling an iterative solver
          1204 MiB given to the printing process from OS
           709 MiB allocation reported by mallinfo(arena+hblkhd)
        227966 MiB available memory on the node where the printing process lives
------------------
     ethr =  4.09E-12,  avg # of iterations =  1.1

     negative rho (up, down):  5.373E-03 5.373E-03

     total cpu time spent up to now is     8065.2 secs

     total energy              =  -12271.35570948 Ry
     estimated scf accuracy    <       0.00000005 Ry

     total magnetization       =     0.03 Bohr mag/cell
     absolute magnetization    =     0.03 Bohr mag/cell

     iteration #145     ecut=    50.00 Ry     beta= 0.01
     Davidson diagonalization with overlap

---- Real-time Memory Report at c_bands before calling an iterative solver
          1204 MiB given to the printing process from OS
           709 MiB allocation reported by mallinfo(arena+hblkhd)
        228134 MiB available memory on the node where the printing process lives
------------------
     ethr =  4.09E-12,  avg # of iterations =  1.0

     negative rho (up, down):  5.371E-03 5.372E-03

     total cpu time spent up to now is     8118.2 secs

     total energy              =  -12271.35570948 Ry
     estimated scf accuracy    <       0.00000005 Ry

     total magnetization       =     0.03 Bohr mag/cell
     absolute magnetization    =     0.03 Bohr mag/cell

     iteration #146     ecut=    50.00 Ry     beta= 0.01
     Davidson diagonalization with overlap

---- Real-time Memory Report at c_bands before calling an iterative solver
          1204 MiB given to the printing process from OS
           709 MiB allocation reported by mallinfo(arena+hblkhd)
        228170 MiB available memory on the node where the printing process lives
------------------
     ethr =  4.09E-12,  avg # of iterations =  1.9

     negative rho (up, down):  5.373E-03 5.373E-03

     total cpu time spent up to now is     8175.7 secs

     total energy              =  -12271.35570945 Ry
     estimated scf accuracy    <       0.00000004 Ry

     total magnetization       =     0.03 Bohr mag/cell
     absolute magnetization    =     0.03 Bohr mag/cell

     iteration #147     ecut=    50.00 Ry     beta= 0.01
     Davidson diagonalization with overlap

---- Real-time Memory Report at c_bands before calling an iterative solver
          1204 MiB given to the printing process from OS
           709 MiB allocation reported by mallinfo(arena+hblkhd)
        227871 MiB available memory on the node where the printing process lives
------------------
     ethr =  4.09E-12,  avg # of iterations =  2.0

     negative rho (up, down):  5.372E-03 5.372E-03

     total cpu time spent up to now is     8239.2 secs

     total energy              =  -12271.35570948 Ry
     estimated scf accuracy    <       0.00000005 Ry

     total magnetization       =     0.02 Bohr mag/cell
     absolute magnetization    =     0.03 Bohr mag/cell

     iteration #148     ecut=    50.00 Ry     beta= 0.01
     Davidson diagonalization with overlap

---- Real-time Memory Report at c_bands before calling an iterative solver
          1204 MiB given to the printing process from OS
           709 MiB allocation reported by mallinfo(arena+hblkhd)
        228128 MiB available memory on the node where the printing process lives
------------------
     ethr =  4.09E-12,  avg # of iterations =  2.0

     negative rho (up, down):  5.372E-03 5.372E-03

     total cpu time spent up to now is     8299.8 secs

     total energy              =  -12271.35570944 Ry
     estimated scf accuracy    <       0.00000005 Ry

     total magnetization       =     0.03 Bohr mag/cell
     absolute magnetization    =     0.03 Bohr mag/cell

     iteration #149     ecut=    50.00 Ry     beta= 0.01
     Davidson diagonalization with overlap

---- Real-time Memory Report at c_bands before calling an iterative solver
          1204 MiB given to the printing process from OS
           709 MiB allocation reported by mallinfo(arena+hblkhd)
        228010 MiB available memory on the node where the printing process lives
------------------
     ethr =  4.09E-12,  avg # of iterations =  2.0

     negative rho (up, down):  5.372E-03 5.372E-03

     total cpu time spent up to now is     8358.2 secs

     total energy              =  -12271.35570946 Ry
     estimated scf accuracy    <       0.00000005 Ry

     total magnetization       =     0.02 Bohr mag/cell
     absolute magnetization    =     0.02 Bohr mag/cell

     iteration #150     ecut=    50.00 Ry     beta= 0.01
     Davidson diagonalization with overlap

---- Real-time Memory Report at c_bands before calling an iterative solver
          1204 MiB given to the printing process from OS
           709 MiB allocation reported by mallinfo(arena+hblkhd)
        228404 MiB available memory on the node where the printing process lives
------------------
     ethr =  4.09E-12,  avg # of iterations =  1.0

     negative rho (up, down):  5.372E-03 5.372E-03

     total cpu time spent up to now is     8408.4 secs

     total energy              =  -12271.35570946 Ry
     estimated scf accuracy    <       0.00000005 Ry

     total magnetization       =     0.03 Bohr mag/cell
     absolute magnetization    =     0.03 Bohr mag/cell

     iteration #151     ecut=    50.00 Ry     beta= 0.01
     Davidson diagonalization with overlap

---- Real-time Memory Report at c_bands before calling an iterative solver
          1204 MiB given to the printing process from OS
           709 MiB allocation reported by mallinfo(arena+hblkhd)
        228216 MiB available memory on the node where the printing process lives
------------------
     ethr =  4.09E-12,  avg # of iterations =  1.0

     negative rho (up, down):  5.372E-03 5.373E-03

     total cpu time spent up to now is     8459.8 secs

     total energy              =  -12271.35570946 Ry
     estimated scf accuracy    <       0.00000005 Ry

     total magnetization       =     0.02 Bohr mag/cell
     absolute magnetization    =     0.03 Bohr mag/cell

     iteration #152     ecut=    50.00 Ry     beta= 0.01
     Davidson diagonalization with overlap

---- Real-time Memory Report at c_bands before calling an iterative solver
          1204 MiB given to the printing process from OS
           709 MiB allocation reported by mallinfo(arena+hblkhd)
        228099 MiB available memory on the node where the printing process lives
------------------
     ethr =  4.09E-12,  avg # of iterations =  1.0

     negative rho (up, down):  5.372E-03 5.372E-03

     total cpu time spent up to now is     8511.3 secs

     total energy              =  -12271.35570946 Ry
     estimated scf accuracy    <       0.00000005 Ry

     total magnetization       =     0.02 Bohr mag/cell
     absolute magnetization    =     0.03 Bohr mag/cell

     iteration #153     ecut=    50.00 Ry     beta= 0.01
     Davidson diagonalization with overlap

---- Real-time Memory Report at c_bands before calling an iterative solver
          1204 MiB given to the printing process from OS
           709 MiB allocation reported by mallinfo(arena+hblkhd)
        228219 MiB available memory on the node where the printing process lives
------------------
     ethr =  4.09E-12,  avg # of iterations =  1.0

     negative rho (up, down):  5.372E-03 5.372E-03

     total cpu time spent up to now is     8561.6 secs

     total energy              =  -12271.35570946 Ry
     estimated scf accuracy    <       0.00000005 Ry

     total magnetization       =     0.02 Bohr mag/cell
     absolute magnetization    =     0.02 Bohr mag/cell

     iteration #154     ecut=    50.00 Ry     beta= 0.01
     Davidson diagonalization with overlap

---- Real-time Memory Report at c_bands before calling an iterative solver
          1204 MiB given to the printing process from OS
           709 MiB allocation reported by mallinfo(arena+hblkhd)
        227858 MiB available memory on the node where the printing process lives
------------------
     ethr =  4.09E-12,  avg # of iterations =  1.0

     negative rho (up, down):  5.372E-03 5.373E-03

     total cpu time spent up to now is     8613.1 secs

     total energy              =  -12271.35570947 Ry
     estimated scf accuracy    <       0.00000005 Ry

     total magnetization       =     0.02 Bohr mag/cell
     absolute magnetization    =     0.03 Bohr mag/cell

     iteration #155     ecut=    50.00 Ry     beta= 0.01
     Davidson diagonalization with overlap

---- Real-time Memory Report at c_bands before calling an iterative solver
          1204 MiB given to the printing process from OS
           709 MiB allocation reported by mallinfo(arena+hblkhd)
        228375 MiB available memory on the node where the printing process lives
------------------
     ethr =  4.09E-12,  avg # of iterations =  1.0

     negative rho (up, down):  5.373E-03 5.373E-03

     total cpu time spent up to now is     8664.6 secs

     total energy              =  -12271.35570947 Ry
     estimated scf accuracy    <       0.00000005 Ry

     total magnetization       =     0.03 Bohr mag/cell
     absolute magnetization    =     0.03 Bohr mag/cell

     iteration #156     ecut=    50.00 Ry     beta= 0.01
     Davidson diagonalization with overlap

---- Real-time Memory Report at c_bands before calling an iterative solver
          1204 MiB given to the printing process from OS
           709 MiB allocation reported by mallinfo(arena+hblkhd)
        228015 MiB available memory on the node where the printing process lives
------------------
     ethr =  4.09E-12,  avg # of iterations =  1.0

     negative rho (up, down):  5.373E-03 5.373E-03

     total cpu time spent up to now is     8714.4 secs

     total energy              =  -12271.35570949 Ry
     estimated scf accuracy    <       0.00000005 Ry

     total magnetization       =     0.03 Bohr mag/cell
     absolute magnetization    =     0.03 Bohr mag/cell

     iteration #157     ecut=    50.00 Ry     beta= 0.01
     Davidson diagonalization with overlap

---- Real-time Memory Report at c_bands before calling an iterative solver
          1204 MiB given to the printing process from OS
           709 MiB allocation reported by mallinfo(arena+hblkhd)
        228244 MiB available memory on the node where the printing process lives
------------------
     ethr =  4.09E-12,  avg # of iterations =  2.0

     negative rho (up, down):  5.373E-03 5.373E-03

     total cpu time spent up to now is     8772.4 secs

     total energy              =  -12271.35570949 Ry
     estimated scf accuracy    <       0.00000004 Ry

     total magnetization       =     0.03 Bohr mag/cell
     absolute magnetization    =     0.03 Bohr mag/cell

     iteration #158     ecut=    50.00 Ry     beta= 0.01
     Davidson diagonalization with overlap

---- Real-time Memory Report at c_bands before calling an iterative solver
          1204 MiB given to the printing process from OS
           709 MiB allocation reported by mallinfo(arena+hblkhd)
        228193 MiB available memory on the node where the printing process lives
------------------
     ethr =  4.06E-12,  avg # of iterations =  1.0

     negative rho (up, down):  5.372E-03 5.373E-03

     total cpu time spent up to now is     8823.6 secs

     total energy              =  -12271.35570949 Ry
     estimated scf accuracy    <       0.00000004 Ry

     total magnetization       =     0.03 Bohr mag/cell
     absolute magnetization    =     0.03 Bohr mag/cell

     iteration #159     ecut=    50.00 Ry     beta= 0.01
     Davidson diagonalization with overlap

---- Real-time Memory Report at c_bands before calling an iterative solver
          1204 MiB given to the printing process from OS
           709 MiB allocation reported by mallinfo(arena+hblkhd)
        227909 MiB available memory on the node where the printing process lives
------------------
     ethr =  4.03E-12,  avg # of iterations =  1.0

     negative rho (up, down):  5.372E-03 5.372E-03

     total cpu time spent up to now is     8875.0 secs

     total energy              =  -12271.35570948 Ry
     estimated scf accuracy    <       0.00000004 Ry

     total magnetization       =     0.03 Bohr mag/cell
     absolute magnetization    =     0.03 Bohr mag/cell

     iteration #160     ecut=    50.00 Ry     beta= 0.01
     Davidson diagonalization with overlap

---- Real-time Memory Report at c_bands before calling an iterative solver
          1204 MiB given to the printing process from OS
           709 MiB allocation reported by mallinfo(arena+hblkhd)
        228210 MiB available memory on the node where the printing process lives
------------------
     ethr =  3.96E-12,  avg # of iterations =  1.0

     negative rho (up, down):  5.372E-03 5.372E-03

     total cpu time spent up to now is     8925.2 secs

     total energy              =  -12271.35570948 Ry
     estimated scf accuracy    <       0.00000004 Ry

     total magnetization       =     0.03 Bohr mag/cell
     absolute magnetization    =     0.03 Bohr mag/cell

     iteration #161     ecut=    50.00 Ry     beta= 0.01
     Davidson diagonalization with overlap

---- Real-time Memory Report at c_bands before calling an iterative solver
          1204 MiB given to the printing process from OS
           709 MiB allocation reported by mallinfo(arena+hblkhd)
        228214 MiB available memory on the node where the printing process lives
------------------
     ethr =  3.96E-12,  avg # of iterations =  1.0

     negative rho (up, down):  5.372E-03 5.372E-03

     total cpu time spent up to now is     8976.4 secs

     total energy              =  -12271.35570948 Ry
     estimated scf accuracy    <       0.00000004 Ry

     total magnetization       =     0.03 Bohr mag/cell
     absolute magnetization    =     0.03 Bohr mag/cell

     iteration #162     ecut=    50.00 Ry     beta= 0.01
     Davidson diagonalization with overlap

---- Real-time Memory Report at c_bands before calling an iterative solver
          1204 MiB given to the printing process from OS
           709 MiB allocation reported by mallinfo(arena+hblkhd)
        228217 MiB available memory on the node where the printing process lives
------------------
     ethr =  3.95E-12,  avg # of iterations =  1.6

     negative rho (up, down):  5.370E-03 5.370E-03

     total cpu time spent up to now is     9039.1 secs

     total energy              =  -12271.35570945 Ry
     estimated scf accuracy    <       0.00000005 Ry

     total magnetization       =     0.03 Bohr mag/cell
     absolute magnetization    =     0.03 Bohr mag/cell

     iteration #163     ecut=    50.00 Ry     beta= 0.01
     Davidson diagonalization with overlap

---- Real-time Memory Report at c_bands before calling an iterative solver
          1204 MiB given to the printing process from OS
           709 MiB allocation reported by mallinfo(arena+hblkhd)
        228400 MiB available memory on the node where the printing process lives
------------------
     ethr =  3.95E-12,  avg # of iterations =  2.0

     negative rho (up, down):  5.370E-03 5.370E-03

     total cpu time spent up to now is     9097.5 secs

     total energy              =  -12271.35570946 Ry
     estimated scf accuracy    <       0.00000004 Ry

     total magnetization       =     0.02 Bohr mag/cell
     absolute magnetization    =     0.03 Bohr mag/cell

     iteration #164     ecut=    50.00 Ry     beta= 0.01
     Davidson diagonalization with overlap

---- Real-time Memory Report at c_bands before calling an iterative solver
          1204 MiB given to the printing process from OS
           709 MiB allocation reported by mallinfo(arena+hblkhd)
        228234 MiB available memory on the node where the printing process lives
------------------
     ethr =  3.93E-12,  avg # of iterations =  1.0

     negative rho (up, down):  5.370E-03 5.371E-03

     total cpu time spent up to now is     9152.0 secs

     total energy              =  -12271.35570944 Ry
     estimated scf accuracy    <       0.00000004 Ry

     total magnetization       =     0.02 Bohr mag/cell
     absolute magnetization    =     0.03 Bohr mag/cell

     iteration #165     ecut=    50.00 Ry     beta= 0.01
     Davidson diagonalization with overlap

---- Real-time Memory Report at c_bands before calling an iterative solver
          1204 MiB given to the printing process from OS
           709 MiB allocation reported by mallinfo(arena+hblkhd)
        228037 MiB available memory on the node where the printing process lives
------------------
     ethr =  3.78E-12,  avg # of iterations =  2.0

     negative rho (up, down):  5.370E-03 5.370E-03

     total cpu time spent up to now is     9214.8 secs

     total energy              =  -12271.35570939 Ry
     estimated scf accuracy    <       0.00000004 Ry

     total magnetization       =     0.02 Bohr mag/cell
     absolute magnetization    =     0.02 Bohr mag/cell

     iteration #166     ecut=    50.00 Ry     beta= 0.01
     Davidson diagonalization with overlap

---- Real-time Memory Report at c_bands before calling an iterative solver
          1205 MiB given to the printing process from OS
           709 MiB allocation reported by mallinfo(arena+hblkhd)
        227857 MiB available memory on the node where the printing process lives
------------------
     ethr =  3.78E-12,  avg # of iterations =  2.0

     negative rho (up, down):  5.370E-03 5.370E-03

     total cpu time spent up to now is     9276.9 secs

     total energy              =  -12271.35570942 Ry
     estimated scf accuracy    <       0.00000004 Ry

     total magnetization       =     0.01 Bohr mag/cell
     absolute magnetization    =     0.02 Bohr mag/cell

     iteration #167     ecut=    50.00 Ry     beta= 0.01
     Davidson diagonalization with overlap

---- Real-time Memory Report at c_bands before calling an iterative solver
          1205 MiB given to the printing process from OS
           709 MiB allocation reported by mallinfo(arena+hblkhd)
        227971 MiB available memory on the node where the printing process lives
------------------
     ethr =  3.78E-12,  avg # of iterations =  1.0

     negative rho (up, down):  5.370E-03 5.370E-03

     total cpu time spent up to now is     9327.7 secs

     total energy              =  -12271.35570942 Ry
     estimated scf accuracy    <       0.00000004 Ry

     total magnetization       =     0.01 Bohr mag/cell
     absolute magnetization    =     0.01 Bohr mag/cell

     iteration #168     ecut=    50.00 Ry     beta= 0.01
     Davidson diagonalization with overlap

---- Real-time Memory Report at c_bands before calling an iterative solver
          1205 MiB given to the printing process from OS
           709 MiB allocation reported by mallinfo(arena+hblkhd)
        227958 MiB available memory on the node where the printing process lives
------------------
     ethr =  3.77E-12,  avg # of iterations =  1.0

     negative rho (up, down):  5.367E-03 5.368E-03

     total cpu time spent up to now is     9378.9 secs

     total energy              =  -12271.35570941 Ry
     estimated scf accuracy    <       0.00000004 Ry

     total magnetization       =     0.01 Bohr mag/cell
     absolute magnetization    =     0.01 Bohr mag/cell

     iteration #169     ecut=    50.00 Ry     beta= 0.01
     Davidson diagonalization with overlap

---- Real-time Memory Report at c_bands before calling an iterative solver
          1205 MiB given to the printing process from OS
           709 MiB allocation reported by mallinfo(arena+hblkhd)
        228193 MiB available memory on the node where the printing process lives
------------------
     ethr =  3.77E-12,  avg # of iterations =  2.0

     negative rho (up, down):  5.368E-03 5.368E-03

     total cpu time spent up to now is     9435.5 secs

     total energy              =  -12271.35570941 Ry
     estimated scf accuracy    <       0.00000004 Ry

     total magnetization       =     0.02 Bohr mag/cell
     absolute magnetization    =     0.02 Bohr mag/cell

     iteration #170     ecut=    50.00 Ry     beta= 0.01
     Davidson diagonalization with overlap

---- Real-time Memory Report at c_bands before calling an iterative solver
          1205 MiB given to the printing process from OS
           709 MiB allocation reported by mallinfo(arena+hblkhd)
        227955 MiB available memory on the node where the printing process lives
------------------
     ethr =  3.77E-12,  avg # of iterations =  1.0

     negative rho (up, down):  5.368E-03 5.368E-03

     total cpu time spent up to now is     9486.8 secs

     total energy              =  -12271.35570940 Ry
     estimated scf accuracy    <       0.00000004 Ry

     total magnetization       =     0.02 Bohr mag/cell
     absolute magnetization    =     0.02 Bohr mag/cell

     iteration #171     ecut=    50.00 Ry     beta= 0.01
     Davidson diagonalization with overlap

---- Real-time Memory Report at c_bands before calling an iterative solver
          1205 MiB given to the printing process from OS
           709 MiB allocation reported by mallinfo(arena+hblkhd)
        228106 MiB available memory on the node where the printing process lives
------------------
     ethr =  3.77E-12,  avg # of iterations =  1.0

     negative rho (up, down):  5.367E-03 5.367E-03

     total cpu time spent up to now is     9538.1 secs

     total energy              =  -12271.35570941 Ry
     estimated scf accuracy    <       0.00000004 Ry

     total magnetization       =     0.01 Bohr mag/cell
     absolute magnetization    =     0.02 Bohr mag/cell

     iteration #172     ecut=    50.00 Ry     beta= 0.01
     Davidson diagonalization with overlap

---- Real-time Memory Report at c_bands before calling an iterative solver
          1205 MiB given to the printing process from OS
           709 MiB allocation reported by mallinfo(arena+hblkhd)
        228249 MiB available memory on the node where the printing process lives
------------------
     ethr =  3.77E-12,  avg # of iterations =  1.0

     negative rho (up, down):  5.368E-03 5.368E-03

     total cpu time spent up to now is     9588.9 secs

     total energy              =  -12271.35570941 Ry
     estimated scf accuracy    <       0.00000004 Ry

     total magnetization       =     0.01 Bohr mag/cell
     absolute magnetization    =     0.02 Bohr mag/cell

     iteration #173     ecut=    50.00 Ry     beta= 0.01
     Davidson diagonalization with overlap

---- Real-time Memory Report at c_bands before calling an iterative solver
          1205 MiB given to the printing process from OS
           709 MiB allocation reported by mallinfo(arena+hblkhd)
        228379 MiB available memory on the node where the printing process lives
------------------
     ethr =  3.67E-12,  avg # of iterations =  1.0

     negative rho (up, down):  5.367E-03 5.368E-03

     total cpu time spent up to now is     9639.5 secs

     total energy              =  -12271.35570940 Ry
     estimated scf accuracy    <       0.00000004 Ry

     total magnetization       =     0.01 Bohr mag/cell
     absolute magnetization    =     0.02 Bohr mag/cell

     iteration #174     ecut=    50.00 Ry     beta= 0.01
     Davidson diagonalization with overlap

---- Real-time Memory Report at c_bands before calling an iterative solver
          1205 MiB given to the printing process from OS
           709 MiB allocation reported by mallinfo(arena+hblkhd)
        227956 MiB available memory on the node where the printing process lives
------------------
     ethr =  3.67E-12,  avg # of iterations =  1.0

     negative rho (up, down):  5.367E-03 5.367E-03

     total cpu time spent up to now is     9691.8 secs

     total energy              =  -12271.35570941 Ry
     estimated scf accuracy    <       0.00000004 Ry

     total magnetization       =     0.01 Bohr mag/cell
     absolute magnetization    =     0.01 Bohr mag/cell

     iteration #175     ecut=    50.00 Ry     beta= 0.01
     Davidson diagonalization with overlap

---- Real-time Memory Report at c_bands before calling an iterative solver
          1205 MiB given to the printing process from OS
           709 MiB allocation reported by mallinfo(arena+hblkhd)
        227999 MiB available memory on the node where the printing process lives
------------------
     ethr =  3.67E-12,  avg # of iterations =  1.0

     negative rho (up, down):  5.368E-03 5.368E-03

     total cpu time spent up to now is     9743.5 secs

     total energy              =  -12271.35570941 Ry
     estimated scf accuracy    <       0.00000004 Ry

     total magnetization       =     0.01 Bohr mag/cell
     absolute magnetization    =     0.02 Bohr mag/cell

     iteration #176     ecut=    50.00 Ry     beta= 0.01
     Davidson diagonalization with overlap

---- Real-time Memory Report at c_bands before calling an iterative solver
          1205 MiB given to the printing process from OS
           709 MiB allocation reported by mallinfo(arena+hblkhd)
        228212 MiB available memory on the node where the printing process lives
------------------
     ethr =  3.67E-12,  avg # of iterations =  1.0

     negative rho (up, down):  5.368E-03 5.368E-03

     total cpu time spent up to now is     9794.3 secs

     total energy              =  -12271.35570941 Ry
     estimated scf accuracy    <       0.00000004 Ry

     total magnetization       =     0.01 Bohr mag/cell
     absolute magnetization    =     0.02 Bohr mag/cell

     iteration #177     ecut=    50.00 Ry     beta= 0.01
     Davidson diagonalization with overlap

---- Real-time Memory Report at c_bands before calling an iterative solver
          1205 MiB given to the printing process from OS
           709 MiB allocation reported by mallinfo(arena+hblkhd)
        228232 MiB available memory on the node where the printing process lives
------------------
     ethr =  3.67E-12,  avg # of iterations =  1.0

     negative rho (up, down):  5.368E-03 5.368E-03

     total cpu time spent up to now is     9845.6 secs

     total energy              =  -12271.35570940 Ry
     estimated scf accuracy    <       0.00000004 Ry

     total magnetization       =     0.01 Bohr mag/cell
     absolute magnetization    =     0.01 Bohr mag/cell

     iteration #178     ecut=    50.00 Ry     beta= 0.01
     Davidson diagonalization with overlap

---- Real-time Memory Report at c_bands before calling an iterative solver
          1205 MiB given to the printing process from OS
           709 MiB allocation reported by mallinfo(arena+hblkhd)
        228192 MiB available memory on the node where the printing process lives
------------------
     ethr =  3.67E-12,  avg # of iterations =  1.0

     negative rho (up, down):  5.368E-03 5.368E-03

     total cpu time spent up to now is     9896.9 secs

     total energy              =  -12271.35570941 Ry
     estimated scf accuracy    <       0.00000004 Ry

     total magnetization       =     0.01 Bohr mag/cell
     absolute magnetization    =     0.01 Bohr mag/cell

     iteration #179     ecut=    50.00 Ry     beta= 0.01
     Davidson diagonalization with overlap

---- Real-time Memory Report at c_bands before calling an iterative solver
          1205 MiB given to the printing process from OS
           709 MiB allocation reported by mallinfo(arena+hblkhd)
        228118 MiB available memory on the node where the printing process lives
------------------
     ethr =  3.67E-12,  avg # of iterations =  1.0

     negative rho (up, down):  5.368E-03 5.368E-03

     total cpu time spent up to now is     9949.7 secs

     total energy              =  -12271.35570941 Ry
     estimated scf accuracy    <       0.00000004 Ry

     total magnetization       =     0.01 Bohr mag/cell
     absolute magnetization    =     0.01 Bohr mag/cell

     iteration #180     ecut=    50.00 Ry     beta= 0.01
     Davidson diagonalization with overlap

---- Real-time Memory Report at c_bands before calling an iterative solver
          1205 MiB given to the printing process from OS
           709 MiB allocation reported by mallinfo(arena+hblkhd)
        228206 MiB available memory on the node where the printing process lives
------------------
     ethr =  3.67E-12,  avg # of iterations =  1.0

     negative rho (up, down):  5.368E-03 5.368E-03

     total cpu time spent up to now is    10002.9 secs

     total energy              =  -12271.35570940 Ry
     estimated scf accuracy    <       0.00000004 Ry

     total magnetization       =     0.01 Bohr mag/cell
     absolute magnetization    =     0.01 Bohr mag/cell

     iteration #181     ecut=    50.00 Ry     beta= 0.01
     Davidson diagonalization with overlap

---- Real-time Memory Report at c_bands before calling an iterative solver
          1205 MiB given to the printing process from OS
           709 MiB allocation reported by mallinfo(arena+hblkhd)
        228290 MiB available memory on the node where the printing process lives
------------------
     ethr =  3.67E-12,  avg # of iterations =  1.0

     negative rho (up, down):  5.368E-03 5.368E-03

     total cpu time spent up to now is    10056.4 secs

     total energy              =  -12271.35570941 Ry
     estimated scf accuracy    <       0.00000004 Ry

     total magnetization       =     0.01 Bohr mag/cell
     absolute magnetization    =     0.01 Bohr mag/cell

     iteration #182     ecut=    50.00 Ry     beta= 0.01
     Davidson diagonalization with overlap

---- Real-time Memory Report at c_bands before calling an iterative solver
          1205 MiB given to the printing process from OS
           709 MiB allocation reported by mallinfo(arena+hblkhd)
        228059 MiB available memory on the node where the printing process lives
------------------
     ethr =  3.67E-12,  avg # of iterations =  1.0

     negative rho (up, down):  5.368E-03 5.368E-03

     total cpu time spent up to now is    10111.1 secs

     total energy              =  -12271.35570941 Ry
     estimated scf accuracy    <       0.00000004 Ry

     total magnetization       =     0.01 Bohr mag/cell
     absolute magnetization    =     0.01 Bohr mag/cell

     iteration #183     ecut=    50.00 Ry     beta= 0.01
     Davidson diagonalization with overlap

---- Real-time Memory Report at c_bands before calling an iterative solver
          1205 MiB given to the printing process from OS
           709 MiB allocation reported by mallinfo(arena+hblkhd)
        227859 MiB available memory on the node where the printing process lives
------------------
     ethr =  3.67E-12,  avg # of iterations =  1.0

     negative rho (up, down):  5.368E-03 5.368E-03

     total cpu time spent up to now is    10163.3 secs

     total energy              =  -12271.35570939 Ry
     estimated scf accuracy    <       0.00000004 Ry

     total magnetization       =     0.01 Bohr mag/cell
     absolute magnetization    =     0.02 Bohr mag/cell

     iteration #184     ecut=    50.00 Ry     beta= 0.01
     Davidson diagonalization with overlap

---- Real-time Memory Report at c_bands before calling an iterative solver
          1205 MiB given to the printing process from OS
           709 MiB allocation reported by mallinfo(arena+hblkhd)
        228070 MiB available memory on the node where the printing process lives
------------------
     ethr =  3.65E-12,  avg # of iterations =  1.1

     negative rho (up, down):  5.366E-03 5.366E-03

     total cpu time spent up to now is    10215.1 secs

     total energy              =  -12271.35570940 Ry
     estimated scf accuracy    <       0.00000004 Ry

     total magnetization       =     0.01 Bohr mag/cell
     absolute magnetization    =     0.01 Bohr mag/cell

     iteration #185     ecut=    50.00 Ry     beta= 0.01
     Davidson diagonalization with overlap

---- Real-time Memory Report at c_bands before calling an iterative solver
          1205 MiB given to the printing process from OS
           709 MiB allocation reported by mallinfo(arena+hblkhd)
        228270 MiB available memory on the node where the printing process lives
------------------
     ethr =  3.65E-12,  avg # of iterations =  1.1

     negative rho (up, down):  5.366E-03 5.366E-03

     total cpu time spent up to now is    10268.4 secs

     total energy              =  -12271.35570940 Ry
     estimated scf accuracy    <       0.00000004 Ry

     total magnetization       =     0.01 Bohr mag/cell
     absolute magnetization    =     0.02 Bohr mag/cell

     iteration #186     ecut=    50.00 Ry     beta= 0.01
     Davidson diagonalization with overlap

---- Real-time Memory Report at c_bands before calling an iterative solver
          1205 MiB given to the printing process from OS
           709 MiB allocation reported by mallinfo(arena+hblkhd)
        228186 MiB available memory on the node where the printing process lives
------------------
     ethr =  3.60E-12,  avg # of iterations =  1.0

     negative rho (up, down):  5.365E-03 5.365E-03

     total cpu time spent up to now is    10319.9 secs

     total energy              =  -12271.35570938 Ry
     estimated scf accuracy    <       0.00000004 Ry

     total magnetization       =     0.01 Bohr mag/cell
     absolute magnetization    =     0.01 Bohr mag/cell

     iteration #187     ecut=    50.00 Ry     beta= 0.01
     Davidson diagonalization with overlap

---- Real-time Memory Report at c_bands before calling an iterative solver
          1205 MiB given to the printing process from OS
           709 MiB allocation reported by mallinfo(arena+hblkhd)
        228188 MiB available memory on the node where the printing process lives
------------------
     ethr =  3.55E-12,  avg # of iterations =  2.0

     negative rho (up, down):  5.365E-03 5.365E-03

     total cpu time spent up to now is    10378.0 secs

     total energy              =  -12271.35570938 Ry
     estimated scf accuracy    <       0.00000004 Ry

     total magnetization       =     0.01 Bohr mag/cell
     absolute magnetization    =     0.01 Bohr mag/cell

     iteration #188     ecut=    50.00 Ry     beta= 0.01
     Davidson diagonalization with overlap

---- Real-time Memory Report at c_bands before calling an iterative solver
          1205 MiB given to the printing process from OS
           709 MiB allocation reported by mallinfo(arena+hblkhd)
        228294 MiB available memory on the node where the printing process lives
------------------
     ethr =  3.45E-12,  avg # of iterations =  1.0

     negative rho (up, down):  5.365E-03 5.365E-03

     total cpu time spent up to now is    10429.5 secs

     total energy              =  -12271.35570938 Ry
     estimated scf accuracy    <       0.00000004 Ry

     total magnetization       =     0.01 Bohr mag/cell
     absolute magnetization    =     0.01 Bohr mag/cell

     iteration #189     ecut=    50.00 Ry     beta= 0.01
     Davidson diagonalization with overlap

---- Real-time Memory Report at c_bands before calling an iterative solver
          1205 MiB given to the printing process from OS
           709 MiB allocation reported by mallinfo(arena+hblkhd)
        228111 MiB available memory on the node where the printing process lives
------------------
     ethr =  3.43E-12,  avg # of iterations =  1.0

     negative rho (up, down):  5.365E-03 5.365E-03

     total cpu time spent up to now is    10480.1 secs

     total energy              =  -12271.35570938 Ry
     estimated scf accuracy    <       0.00000004 Ry

     total magnetization       =     0.01 Bohr mag/cell
     absolute magnetization    =     0.01 Bohr mag/cell

     iteration #190     ecut=    50.00 Ry     beta= 0.01
     Davidson diagonalization with overlap

---- Real-time Memory Report at c_bands before calling an iterative solver
          1205 MiB given to the printing process from OS
           709 MiB allocation reported by mallinfo(arena+hblkhd)
        228225 MiB available memory on the node where the printing process lives
------------------
     ethr =  3.41E-12,  avg # of iterations =  1.0

     negative rho (up, down):  5.364E-03 5.365E-03

     total cpu time spent up to now is    10531.9 secs

     total energy              =  -12271.35570936 Ry
     estimated scf accuracy    <       0.00000004 Ry

     total magnetization       =     0.01 Bohr mag/cell
     absolute magnetization    =     0.01 Bohr mag/cell

     iteration #191     ecut=    50.00 Ry     beta= 0.01
     Davidson diagonalization with overlap

---- Real-time Memory Report at c_bands before calling an iterative solver
          1205 MiB given to the printing process from OS
           709 MiB allocation reported by mallinfo(arena+hblkhd)
        228014 MiB available memory on the node where the printing process lives
------------------
     ethr =  3.39E-12,  avg # of iterations =  2.0

     negative rho (up, down):  5.364E-03 5.364E-03

     total cpu time spent up to now is    10590.5 secs

     total energy              =  -12271.35570935 Ry
     estimated scf accuracy    <       0.00000004 Ry

     total magnetization       =     0.01 Bohr mag/cell
     absolute magnetization    =     0.01 Bohr mag/cell

     iteration #192     ecut=    50.00 Ry     beta= 0.01
     Davidson diagonalization with overlap

---- Real-time Memory Report at c_bands before calling an iterative solver
          1205 MiB given to the printing process from OS
           709 MiB allocation reported by mallinfo(arena+hblkhd)
        227940 MiB available memory on the node where the printing process lives
------------------
     ethr =  3.38E-12,  avg # of iterations =  2.0

     negative rho (up, down):  5.364E-03 5.364E-03

     total cpu time spent up to now is    10649.8 secs

     total energy              =  -12271.35570936 Ry
     estimated scf accuracy    <       0.00000003 Ry

     total magnetization       =     0.00 Bohr mag/cell
     absolute magnetization    =     0.00 Bohr mag/cell

     iteration #193     ecut=    50.00 Ry     beta= 0.01
     Davidson diagonalization with overlap

---- Real-time Memory Report at c_bands before calling an iterative solver
          1205 MiB given to the printing process from OS
           709 MiB allocation reported by mallinfo(arena+hblkhd)
        228099 MiB available memory on the node where the printing process lives
------------------
     ethr =  3.33E-12,  avg # of iterations =  1.0

     negative rho (up, down):  5.363E-03 5.363E-03

     total cpu time spent up to now is    10701.6 secs

     total energy              =  -12271.35570936 Ry
     estimated scf accuracy    <       0.00000003 Ry

     total magnetization       =     0.00 Bohr mag/cell
     absolute magnetization    =     0.00 Bohr mag/cell

     iteration #194     ecut=    50.00 Ry     beta= 0.01
     Davidson diagonalization with overlap

---- Real-time Memory Report at c_bands before calling an iterative solver
          1205 MiB given to the printing process from OS
           709 MiB allocation reported by mallinfo(arena+hblkhd)
        228063 MiB available memory on the node where the printing process lives
------------------
     ethr =  3.30E-12,  avg # of iterations =  1.0

     negative rho (up, down):  5.362E-03 5.362E-03

     total cpu time spent up to now is    10751.4 secs

     total energy              =  -12271.35570935 Ry
     estimated scf accuracy    <       0.00000003 Ry

     total magnetization       =     0.01 Bohr mag/cell
     absolute magnetization    =     0.01 Bohr mag/cell

     iteration #195     ecut=    50.00 Ry     beta= 0.01
     Davidson diagonalization with overlap

---- Real-time Memory Report at c_bands before calling an iterative solver
          1205 MiB given to the printing process from OS
           709 MiB allocation reported by mallinfo(arena+hblkhd)
        228209 MiB available memory on the node where the printing process lives
------------------
     ethr =  3.23E-12,  avg # of iterations =  1.0

     negative rho (up, down):  5.361E-03 5.361E-03

     total cpu time spent up to now is    10802.3 secs

     total energy              =  -12271.35570934 Ry
     estimated scf accuracy    <       0.00000003 Ry

     total magnetization       =     0.01 Bohr mag/cell
     absolute magnetization    =     0.01 Bohr mag/cell

     iteration #196     ecut=    50.00 Ry     beta= 0.01
     Davidson diagonalization with overlap

---- Real-time Memory Report at c_bands before calling an iterative solver
          1205 MiB given to the printing process from OS
           709 MiB allocation reported by mallinfo(arena+hblkhd)
        228212 MiB available memory on the node where the printing process lives
------------------
     ethr =  3.19E-12,  avg # of iterations =  1.0

     negative rho (up, down):  5.361E-03 5.361E-03

     total cpu time spent up to now is    10854.5 secs

     total energy              =  -12271.35570934 Ry
     estimated scf accuracy    <       0.00000003 Ry

     total magnetization       =     0.00 Bohr mag/cell
     absolute magnetization    =     0.00 Bohr mag/cell

     iteration #197     ecut=    50.00 Ry     beta= 0.01
     Davidson diagonalization with overlap

---- Real-time Memory Report at c_bands before calling an iterative solver
          1205 MiB given to the printing process from OS
           709 MiB allocation reported by mallinfo(arena+hblkhd)
        228051 MiB available memory on the node where the printing process lives
------------------
     ethr =  3.19E-12,  avg # of iterations =  2.0

     negative rho (up, down):  5.360E-03 5.360E-03

     total cpu time spent up to now is    10915.6 secs

     total energy              =  -12271.35570934 Ry
     estimated scf accuracy    <       0.00000003 Ry

     total magnetization       =     0.01 Bohr mag/cell
     absolute magnetization    =     0.01 Bohr mag/cell

     iteration #198     ecut=    50.00 Ry     beta= 0.01
     Davidson diagonalization with overlap

---- Real-time Memory Report at c_bands before calling an iterative solver
          1205 MiB given to the printing process from OS
           709 MiB allocation reported by mallinfo(arena+hblkhd)
        228104 MiB available memory on the node where the printing process lives
------------------
     ethr =  3.19E-12,  avg # of iterations =  1.0

     negative rho (up, down):  5.361E-03 5.361E-03

     total cpu time spent up to now is    10968.2 secs

     total energy              =  -12271.35570935 Ry
     estimated scf accuracy    <       0.00000003 Ry

     total magnetization       =     0.01 Bohr mag/cell
     absolute magnetization    =     0.01 Bohr mag/cell

     iteration #199     ecut=    50.00 Ry     beta= 0.01
     Davidson diagonalization with overlap

---- Real-time Memory Report at c_bands before calling an iterative solver
          1205 MiB given to the printing process from OS
           709 MiB allocation reported by mallinfo(arena+hblkhd)
        228230 MiB available memory on the node where the printing process lives
------------------
     ethr =  3.19E-12,  avg # of iterations =  1.0

     negative rho (up, down):  5.360E-03 5.361E-03

     total cpu time spent up to now is    11021.0 secs

     total energy              =  -12271.35570934 Ry
     estimated scf accuracy    <       0.00000003 Ry

     total magnetization       =     0.01 Bohr mag/cell
     absolute magnetization    =     0.01 Bohr mag/cell

     iteration #200     ecut=    50.00 Ry     beta= 0.01
     Davidson diagonalization with overlap

---- Real-time Memory Report at c_bands before calling an iterative solver
          1205 MiB given to the printing process from OS
           709 MiB allocation reported by mallinfo(arena+hblkhd)
        228084 MiB available memory on the node where the printing process lives
------------------
     ethr =  3.19E-12,  avg # of iterations =  1.0

     negative rho (up, down):  5.360E-03 5.360E-03

     total cpu time spent up to now is    11075.6 secs

     total energy              =  -12271.35570934 Ry
     estimated scf accuracy    <       0.00000003 Ry

     total magnetization       =     0.00 Bohr mag/cell
     absolute magnetization    =     0.00 Bohr mag/cell

     iteration #201     ecut=    50.00 Ry     beta= 0.01
     Davidson diagonalization with overlap

---- Real-time Memory Report at c_bands before calling an iterative solver
          1205 MiB given to the printing process from OS
           709 MiB allocation reported by mallinfo(arena+hblkhd)
        227799 MiB available memory on the node where the printing process lives
------------------
     ethr =  3.19E-12,  avg # of iterations =  1.0

     negative rho (up, down):  5.360E-03 5.361E-03

     total cpu time spent up to now is    11127.2 secs

     total energy              =  -12271.35570935 Ry
     estimated scf accuracy    <       0.00000003 Ry

     total magnetization       =     0.01 Bohr mag/cell
     absolute magnetization    =     0.01 Bohr mag/cell

     iteration #202     ecut=    50.00 Ry     beta= 0.01
     Davidson diagonalization with overlap

---- Real-time Memory Report at c_bands before calling an iterative solver
          1205 MiB given to the printing process from OS
           709 MiB allocation reported by mallinfo(arena+hblkhd)
        228090 MiB available memory on the node where the printing process lives
------------------
     ethr =  3.19E-12,  avg # of iterations =  1.0

     negative rho (up, down):  5.360E-03 5.360E-03

     total cpu time spent up to now is    11178.2 secs

     total energy              =  -12271.35570934 Ry
     estimated scf accuracy    <       0.00000003 Ry

     total magnetization       =     0.01 Bohr mag/cell
     absolute magnetization    =     0.01 Bohr mag/cell

     iteration #203     ecut=    50.00 Ry     beta= 0.01
     Davidson diagonalization with overlap

---- Real-time Memory Report at c_bands before calling an iterative solver
          1205 MiB given to the printing process from OS
           709 MiB allocation reported by mallinfo(arena+hblkhd)
        228276 MiB available memory on the node where the printing process lives
------------------
     ethr =  3.19E-12,  avg # of iterations =  1.1

     negative rho (up, down):  5.361E-03 5.361E-03

     total cpu time spent up to now is    11232.3 secs

     total energy              =  -12271.35570935 Ry
     estimated scf accuracy    <       0.00000003 Ry

     total magnetization       =     0.01 Bohr mag/cell
     absolute magnetization    =     0.01 Bohr mag/cell

     iteration #204     ecut=    50.00 Ry     beta= 0.01
     Davidson diagonalization with overlap

---- Real-time Memory Report at c_bands before calling an iterative solver
          1205 MiB given to the printing process from OS
           709 MiB allocation reported by mallinfo(arena+hblkhd)
        228205 MiB available memory on the node where the printing process lives
------------------
     ethr =  3.19E-12,  avg # of iterations =  1.0

     negative rho (up, down):  5.359E-03 5.359E-03

     total cpu time spent up to now is    11284.1 secs

     total energy              =  -12271.35570933 Ry
     estimated scf accuracy    <       0.00000003 Ry

     total magnetization       =     0.01 Bohr mag/cell
     absolute magnetization    =     0.01 Bohr mag/cell

     iteration #205     ecut=    50.00 Ry     beta= 0.01
     Davidson diagonalization with overlap

---- Real-time Memory Report at c_bands before calling an iterative solver
          1205 MiB given to the printing process from OS
           709 MiB allocation reported by mallinfo(arena+hblkhd)
        228244 MiB available memory on the node where the printing process lives
------------------
     ethr =  3.19E-12,  avg # of iterations =  1.0

     negative rho (up, down):  5.360E-03 5.360E-03

     total cpu time spent up to now is    11335.8 secs

     total energy              =  -12271.35570934 Ry
     estimated scf accuracy    <       0.00000004 Ry

     total magnetization       =     0.01 Bohr mag/cell
     absolute magnetization    =     0.01 Bohr mag/cell

     iteration #206     ecut=    50.00 Ry     beta= 0.01
     Davidson diagonalization with overlap

---- Real-time Memory Report at c_bands before calling an iterative solver
          1205 MiB given to the printing process from OS
           709 MiB allocation reported by mallinfo(arena+hblkhd)
        228076 MiB available memory on the node where the printing process lives
------------------
     ethr =  3.19E-12,  avg # of iterations =  1.0

     negative rho (up, down):  5.361E-03 5.361E-03

     total cpu time spent up to now is    11387.0 secs

     total energy              =  -12271.35570934 Ry
     estimated scf accuracy    <       0.00000003 Ry

     total magnetization       =     0.01 Bohr mag/cell
     absolute magnetization    =     0.01 Bohr mag/cell

     iteration #207     ecut=    50.00 Ry     beta= 0.01
     Davidson diagonalization with overlap

---- Real-time Memory Report at c_bands before calling an iterative solver
          1205 MiB given to the printing process from OS
           709 MiB allocation reported by mallinfo(arena+hblkhd)
        228228 MiB available memory on the node where the printing process lives
------------------
     ethr =  3.15E-12,  avg # of iterations =  1.0

     negative rho (up, down):  5.359E-03 5.359E-03

     total cpu time spent up to now is    11437.4 secs

     total energy              =  -12271.35570931 Ry
     estimated scf accuracy    <       0.00000003 Ry

     total magnetization       =     0.01 Bohr mag/cell
     absolute magnetization    =     0.01 Bohr mag/cell

     iteration #208     ecut=    50.00 Ry     beta= 0.01
     Davidson diagonalization with overlap

---- Real-time Memory Report at c_bands before calling an iterative solver
          1205 MiB given to the printing process from OS
           709 MiB allocation reported by mallinfo(arena+hblkhd)
        228238 MiB available memory on the node where the printing process lives
------------------
     ethr =  3.03E-12,  avg # of iterations =  2.0

     negative rho (up, down):  5.356E-03 5.356E-03

     total cpu time spent up to now is    11496.7 secs

     total energy              =  -12271.35570930 Ry
     estimated scf accuracy    <       0.00000003 Ry

     total magnetization       =     0.00 Bohr mag/cell
     absolute magnetization    =     0.00 Bohr mag/cell

     iteration #209     ecut=    50.00 Ry     beta= 0.01
     Davidson diagonalization with overlap

---- Real-time Memory Report at c_bands before calling an iterative solver
          1205 MiB given to the printing process from OS
           709 MiB allocation reported by mallinfo(arena+hblkhd)
        227917 MiB available memory on the node where the printing process lives
------------------
     ethr =  2.90E-12,  avg # of iterations =  2.0

     negative rho (up, down):  5.356E-03 5.356E-03

     total cpu time spent up to now is    11555.3 secs

     total energy              =  -12271.35570931 Ry
     estimated scf accuracy    <       0.00000003 Ry

     total magnetization       =    -0.00 Bohr mag/cell
     absolute magnetization    =     0.00 Bohr mag/cell

     iteration #210     ecut=    50.00 Ry     beta= 0.01
     Davidson diagonalization with overlap

---- Real-time Memory Report at c_bands before calling an iterative solver
          1205 MiB given to the printing process from OS
           709 MiB allocation reported by mallinfo(arena+hblkhd)
        228104 MiB available memory on the node where the printing process lives
------------------
     ethr =  2.78E-12,  avg # of iterations =  1.0

     negative rho (up, down):  5.356E-03 5.357E-03

     total cpu time spent up to now is    11607.3 secs

     total energy              =  -12271.35570931 Ry
     estimated scf accuracy    <       0.00000003 Ry

     total magnetization       =    -0.00 Bohr mag/cell
     absolute magnetization    =     0.00 Bohr mag/cell

     iteration #211     ecut=    50.00 Ry     beta= 0.01
     Davidson diagonalization with overlap

---- Real-time Memory Report at c_bands before calling an iterative solver
          1205 MiB given to the printing process from OS
           709 MiB allocation reported by mallinfo(arena+hblkhd)
        228115 MiB available memory on the node where the printing process lives
------------------
     ethr =  2.77E-12,  avg # of iterations =  1.0

     negative rho (up, down):  5.356E-03 5.357E-03

     total cpu time spent up to now is    11658.6 secs

     total energy              =  -12271.35570931 Ry
     estimated scf accuracy    <       0.00000003 Ry

     total magnetization       =    -0.00 Bohr mag/cell
     absolute magnetization    =     0.00 Bohr mag/cell

     iteration #212     ecut=    50.00 Ry     beta= 0.01
     Davidson diagonalization with overlap

---- Real-time Memory Report at c_bands before calling an iterative solver
          1207 MiB given to the printing process from OS
           709 MiB allocation reported by mallinfo(arena+hblkhd)
        228057 MiB available memory on the node where the printing process lives
------------------
     ethr =  2.77E-12,  avg # of iterations =  1.0

     negative rho (up, down):  5.355E-03 5.356E-03

     total cpu time spent up to now is    11709.6 secs

     total energy              =  -12271.35570930 Ry
     estimated scf accuracy    <       0.00000003 Ry

     total magnetization       =    -0.00 Bohr mag/cell
     absolute magnetization    =     0.00 Bohr mag/cell

     iteration #213     ecut=    50.00 Ry     beta= 0.01
     Davidson diagonalization with overlap

---- Real-time Memory Report at c_bands before calling an iterative solver
          1207 MiB given to the printing process from OS
           709 MiB allocation reported by mallinfo(arena+hblkhd)
        227930 MiB available memory on the node where the printing process lives
------------------
     ethr =  2.75E-12,  avg # of iterations =  2.0

     negative rho (up, down):  5.356E-03 5.356E-03

     total cpu time spent up to now is    11768.5 secs

     total energy              =  -12271.35570931 Ry
     estimated scf accuracy    <       0.00000003 Ry

     total magnetization       =    -0.01 Bohr mag/cell
     absolute magnetization    =     0.01 Bohr mag/cell

     iteration #214     ecut=    50.00 Ry     beta= 0.01
     Davidson diagonalization with overlap

---- Real-time Memory Report at c_bands before calling an iterative solver
          1207 MiB given to the printing process from OS
           709 MiB allocation reported by mallinfo(arena+hblkhd)
        227904 MiB available memory on the node where the printing process lives
------------------
     ethr =  2.73E-12,  avg # of iterations =  1.0

     negative rho (up, down):  5.356E-03 5.356E-03

     total cpu time spent up to now is    11820.2 secs

     total energy              =  -12271.35570931 Ry
     estimated scf accuracy    <       0.00000003 Ry

     total magnetization       =    -0.01 Bohr mag/cell
     absolute magnetization    =     0.01 Bohr mag/cell

     iteration #215     ecut=    50.00 Ry     beta= 0.01
     Davidson diagonalization with overlap

---- Real-time Memory Report at c_bands before calling an iterative solver
          1207 MiB given to the printing process from OS
           709 MiB allocation reported by mallinfo(arena+hblkhd)
        228198 MiB available memory on the node where the printing process lives
------------------
     ethr =  2.71E-12,  avg # of iterations =  1.0

     negative rho (up, down):  5.355E-03 5.355E-03

     total cpu time spent up to now is    11875.0 secs

     total energy              =  -12271.35570932 Ry
     estimated scf accuracy    <       0.00000003 Ry

     total magnetization       =    -0.01 Bohr mag/cell
     absolute magnetization    =     0.01 Bohr mag/cell

     iteration #216     ecut=    50.00 Ry     beta= 0.01
     Davidson diagonalization with overlap

---- Real-time Memory Report at c_bands before calling an iterative solver
          1207 MiB given to the printing process from OS
           709 MiB allocation reported by mallinfo(arena+hblkhd)
        228268 MiB available memory on the node where the printing process lives
------------------
     ethr =  2.70E-12,  avg # of iterations =  1.0

     negative rho (up, down):  5.355E-03 5.355E-03

     total cpu time spent up to now is    11925.2 secs

     total energy              =  -12271.35570931 Ry
     estimated scf accuracy    <       0.00000003 Ry

     total magnetization       =    -0.01 Bohr mag/cell
     absolute magnetization    =     0.01 Bohr mag/cell

     iteration #217     ecut=    50.00 Ry     beta= 0.01
     Davidson diagonalization with overlap

---- Real-time Memory Report at c_bands before calling an iterative solver
          1207 MiB given to the printing process from OS
           709 MiB allocation reported by mallinfo(arena+hblkhd)
        228105 MiB available memory on the node where the printing process lives
------------------
     ethr =  2.60E-12,  avg # of iterations =  1.9

     negative rho (up, down):  5.353E-03 5.354E-03

     total cpu time spent up to now is    11987.8 secs

     total energy              =  -12271.35570931 Ry
     estimated scf accuracy    <       0.00000002 Ry

     total magnetization       =    -0.00 Bohr mag/cell
     absolute magnetization    =     0.00 Bohr mag/cell

     iteration #218     ecut=    50.00 Ry     beta= 0.01
     Davidson diagonalization with overlap

---- Real-time Memory Report at c_bands before calling an iterative solver
          1207 MiB given to the printing process from OS
           709 MiB allocation reported by mallinfo(arena+hblkhd)
        228059 MiB available memory on the node where the printing process lives
------------------
     ethr =  2.38E-12,  avg # of iterations =  1.0

     negative rho (up, down):  5.353E-03 5.353E-03

     total cpu time spent up to now is    12039.6 secs

     total energy              =  -12271.35570931 Ry
     estimated scf accuracy    <       0.00000002 Ry

     total magnetization       =    -0.01 Bohr mag/cell
     absolute magnetization    =     0.01 Bohr mag/cell

     iteration #219     ecut=    50.00 Ry     beta= 0.01
     Davidson diagonalization with overlap

---- Real-time Memory Report at c_bands before calling an iterative solver
          1207 MiB given to the printing process from OS
           709 MiB allocation reported by mallinfo(arena+hblkhd)
        227794 MiB available memory on the node where the printing process lives
------------------
     ethr =  2.31E-12,  avg # of iterations =  1.0

     negative rho (up, down):  5.353E-03 5.353E-03

     total cpu time spent up to now is    12092.0 secs

     total energy              =  -12271.35570931 Ry
     estimated scf accuracy    <       0.00000002 Ry

     total magnetization       =    -0.01 Bohr mag/cell
     absolute magnetization    =     0.01 Bohr mag/cell

     iteration #220     ecut=    50.00 Ry     beta= 0.01
     Davidson diagonalization with overlap

---- Real-time Memory Report at c_bands before calling an iterative solver
          1207 MiB given to the printing process from OS
           709 MiB allocation reported by mallinfo(arena+hblkhd)
        228107 MiB available memory on the node where the printing process lives
------------------
     ethr =  2.19E-12,  avg # of iterations =  1.0

     negative rho (up, down):  5.353E-03 5.353E-03

     total cpu time spent up to now is    12143.8 secs

     total energy              =  -12271.35570931 Ry
     estimated scf accuracy    <       0.00000002 Ry

     total magnetization       =    -0.01 Bohr mag/cell
     absolute magnetization    =     0.01 Bohr mag/cell

     iteration #221     ecut=    50.00 Ry     beta= 0.01
     Davidson diagonalization with overlap

---- Real-time Memory Report at c_bands before calling an iterative solver
          1207 MiB given to the printing process from OS
           709 MiB allocation reported by mallinfo(arena+hblkhd)
        228066 MiB available memory on the node where the printing process lives
------------------
     ethr =  2.19E-12,  avg # of iterations =  1.0

     negative rho (up, down):  5.353E-03 5.353E-03

     total cpu time spent up to now is    12194.0 secs

     total energy              =  -12271.35570931 Ry
     estimated scf accuracy    <       0.00000002 Ry

     total magnetization       =    -0.01 Bohr mag/cell
     absolute magnetization    =     0.01 Bohr mag/cell

     iteration #222     ecut=    50.00 Ry     beta= 0.01
     Davidson diagonalization with overlap

---- Real-time Memory Report at c_bands before calling an iterative solver
          1207 MiB given to the printing process from OS
           709 MiB allocation reported by mallinfo(arena+hblkhd)
        228334 MiB available memory on the node where the printing process lives
------------------
     ethr =  2.18E-12,  avg # of iterations =  1.0

     negative rho (up, down):  5.353E-03 5.353E-03

     total cpu time spent up to now is    12245.3 secs

     total energy              =  -12271.35570931 Ry
     estimated scf accuracy    <       0.00000002 Ry

     total magnetization       =    -0.01 Bohr mag/cell
     absolute magnetization    =     0.01 Bohr mag/cell

     iteration #223     ecut=    50.00 Ry     beta= 0.01
     Davidson diagonalization with overlap

---- Real-time Memory Report at c_bands before calling an iterative solver
          1207 MiB given to the printing process from OS
           709 MiB allocation reported by mallinfo(arena+hblkhd)
        228126 MiB available memory on the node where the printing process lives
------------------
     ethr =  2.18E-12,  avg # of iterations =  1.0

     negative rho (up, down):  5.353E-03 5.353E-03

     total cpu time spent up to now is    12296.5 secs

     total energy              =  -12271.35570931 Ry
     estimated scf accuracy    <       0.00000002 Ry

     total magnetization       =    -0.01 Bohr mag/cell
     absolute magnetization    =     0.01 Bohr mag/cell

     iteration #224     ecut=    50.00 Ry     beta= 0.01
     Davidson diagonalization with overlap

---- Real-time Memory Report at c_bands before calling an iterative solver
          1207 MiB given to the printing process from OS
           709 MiB allocation reported by mallinfo(arena+hblkhd)
        227961 MiB available memory on the node where the printing process lives
------------------
     ethr =  2.18E-12,  avg # of iterations =  1.0

     negative rho (up, down):  5.353E-03 5.353E-03

     total cpu time spent up to now is    12348.0 secs

     total energy              =  -12271.35570931 Ry
     estimated scf accuracy    <       0.00000002 Ry

     total magnetization       =    -0.01 Bohr mag/cell
     absolute magnetization    =     0.01 Bohr mag/cell

     iteration #225     ecut=    50.00 Ry     beta= 0.01
     Davidson diagonalization with overlap

---- Real-time Memory Report at c_bands before calling an iterative solver
          1207 MiB given to the printing process from OS
           709 MiB allocation reported by mallinfo(arena+hblkhd)
        228553 MiB available memory on the node where the printing process lives
------------------
     ethr =  2.18E-12,  avg # of iterations =  1.0

     negative rho (up, down):  5.353E-03 5.353E-03

     total cpu time spent up to now is    12398.9 secs

     total energy              =  -12271.35570931 Ry
     estimated scf accuracy    <       0.00000002 Ry

     total magnetization       =    -0.01 Bohr mag/cell
     absolute magnetization    =     0.01 Bohr mag/cell

     iteration #226     ecut=    50.00 Ry     beta= 0.01
     Davidson diagonalization with overlap

---- Real-time Memory Report at c_bands before calling an iterative solver
          1207 MiB given to the printing process from OS
           709 MiB allocation reported by mallinfo(arena+hblkhd)
        228045 MiB available memory on the node where the printing process lives
------------------
     ethr =  2.18E-12,  avg # of iterations =  1.0

     negative rho (up, down):  5.352E-03 5.352E-03

     total cpu time spent up to now is    12450.2 secs

     total energy              =  -12271.35570930 Ry
     estimated scf accuracy    <       0.00000002 Ry

     total magnetization       =    -0.01 Bohr mag/cell
     absolute magnetization    =     0.01 Bohr mag/cell

     iteration #227     ecut=    50.00 Ry     beta= 0.01
     Davidson diagonalization with overlap

---- Real-time Memory Report at c_bands before calling an iterative solver
          1207 MiB given to the printing process from OS
           709 MiB allocation reported by mallinfo(arena+hblkhd)
        228132 MiB available memory on the node where the printing process lives
------------------
     ethr =  2.18E-12,  avg # of iterations =  1.0

     negative rho (up, down):  5.352E-03 5.352E-03

     total cpu time spent up to now is    12501.9 secs

     total energy              =  -12271.35570931 Ry
     estimated scf accuracy    <       0.00000002 Ry

     total magnetization       =    -0.01 Bohr mag/cell
     absolute magnetization    =     0.01 Bohr mag/cell

     iteration #228     ecut=    50.00 Ry     beta= 0.01
     Davidson diagonalization with overlap

---- Real-time Memory Report at c_bands before calling an iterative solver
          1207 MiB given to the printing process from OS
           709 MiB allocation reported by mallinfo(arena+hblkhd)
        228209 MiB available memory on the node where the printing process lives
------------------
     ethr =  2.15E-12,  avg # of iterations =  1.0

     negative rho (up, down):  5.353E-03 5.353E-03

     total cpu time spent up to now is    12552.1 secs

     total energy              =  -12271.35570932 Ry
     estimated scf accuracy    <       0.00000002 Ry

     total magnetization       =    -0.01 Bohr mag/cell
     absolute magnetization    =     0.01 Bohr mag/cell

     iteration #229     ecut=    50.00 Ry     beta= 0.01
     Davidson diagonalization with overlap

---- Real-time Memory Report at c_bands before calling an iterative solver
          1207 MiB given to the printing process from OS
           709 MiB allocation reported by mallinfo(arena+hblkhd)
        228229 MiB available memory on the node where the printing process lives
------------------
     ethr =  2.15E-12,  avg # of iterations =  1.0

     negative rho (up, down):  5.353E-03 5.353E-03

     total cpu time spent up to now is    12604.3 secs

     total energy              =  -12271.35570931 Ry
     estimated scf accuracy    <       0.00000002 Ry

     total magnetization       =    -0.01 Bohr mag/cell
     absolute magnetization    =     0.01 Bohr mag/cell

     iteration #230     ecut=    50.00 Ry     beta= 0.01
     Davidson diagonalization with overlap

---- Real-time Memory Report at c_bands before calling an iterative solver
          1207 MiB given to the printing process from OS
           709 MiB allocation reported by mallinfo(arena+hblkhd)
        228119 MiB available memory on the node where the printing process lives
------------------
     ethr =  2.13E-12,  avg # of iterations =  1.0

     negative rho (up, down):  5.349E-03 5.349E-03

     total cpu time spent up to now is    12655.9 secs

     total energy              =  -12271.35570916 Ry
     estimated scf accuracy    <       0.00000002 Ry

     total magnetization       =    -0.01 Bohr mag/cell
     absolute magnetization    =     0.01 Bohr mag/cell

     iteration #231     ecut=    50.00 Ry     beta= 0.01
     Davidson diagonalization with overlap

---- Real-time Memory Report at c_bands before calling an iterative solver
          1207 MiB given to the printing process from OS
           709 MiB allocation reported by mallinfo(arena+hblkhd)
        228124 MiB available memory on the node where the printing process lives
------------------
     ethr =  2.07E-12,  avg # of iterations =  3.0

     negative rho (up, down):  5.349E-03 5.349E-03

     total cpu time spent up to now is    12726.9 secs

     total energy              =  -12271.35570927 Ry
     estimated scf accuracy    <       0.00000002 Ry

     total magnetization       =     0.00 Bohr mag/cell
     absolute magnetization    =     0.00 Bohr mag/cell

     iteration #232     ecut=    50.00 Ry     beta= 0.01
     Davidson diagonalization with overlap

---- Real-time Memory Report at c_bands before calling an iterative solver
          1207 MiB given to the printing process from OS
           709 MiB allocation reported by mallinfo(arena+hblkhd)
        228224 MiB available memory on the node where the printing process lives
------------------
     ethr =  1.86E-12,  avg # of iterations =  1.0

     negative rho (up, down):  5.349E-03 5.349E-03

     total cpu time spent up to now is    12782.4 secs

     total energy              =  -12271.35570926 Ry
     estimated scf accuracy    <       0.00000002 Ry

     total magnetization       =     0.01 Bohr mag/cell
     absolute magnetization    =     0.01 Bohr mag/cell

     iteration #233     ecut=    50.00 Ry     beta= 0.01
     Davidson diagonalization with overlap

---- Real-time Memory Report at c_bands before calling an iterative solver
          1207 MiB given to the printing process from OS
           709 MiB allocation reported by mallinfo(arena+hblkhd)
        228180 MiB available memory on the node where the printing process lives
------------------
     ethr =  1.79E-12,  avg # of iterations =  1.0

     negative rho (up, down):  5.347E-03 5.347E-03

     total cpu time spent up to now is    12835.1 secs

     total energy              =  -12271.35570924 Ry
     estimated scf accuracy    <       0.00000002 Ry

     total magnetization       =     0.00 Bohr mag/cell
     absolute magnetization    =     0.00 Bohr mag/cell

     iteration #234     ecut=    50.00 Ry     beta= 0.01
     Davidson diagonalization with overlap

---- Real-time Memory Report at c_bands before calling an iterative solver
          1207 MiB given to the printing process from OS
           709 MiB allocation reported by mallinfo(arena+hblkhd)
        228308 MiB available memory on the node where the printing process lives
------------------
     ethr =  1.76E-12,  avg # of iterations =  1.0

     negative rho (up, down):  5.347E-03 5.347E-03

     total cpu time spent up to now is    12890.2 secs

     total energy              =  -12271.35570924 Ry
     estimated scf accuracy    <       0.00000002 Ry

     total magnetization       =     0.00 Bohr mag/cell
     absolute magnetization    =     0.00 Bohr mag/cell

     iteration #235     ecut=    50.00 Ry     beta= 0.01
     Davidson diagonalization with overlap

---- Real-time Memory Report at c_bands before calling an iterative solver
          1207 MiB given to the printing process from OS
           709 MiB allocation reported by mallinfo(arena+hblkhd)
        227944 MiB available memory on the node where the printing process lives
------------------
     ethr =  1.73E-12,  avg # of iterations =  1.0

     negative rho (up, down):  5.346E-03 5.346E-03

     total cpu time spent up to now is    12943.8 secs

     total energy              =  -12271.35570923 Ry
     estimated scf accuracy    <       0.00000002 Ry

     total magnetization       =     0.00 Bohr mag/cell
     absolute magnetization    =     0.00 Bohr mag/cell

     iteration #236     ecut=    50.00 Ry     beta= 0.01
     Davidson diagonalization with overlap

---- Real-time Memory Report at c_bands before calling an iterative solver
          1207 MiB given to the printing process from OS
           709 MiB allocation reported by mallinfo(arena+hblkhd)
        227881 MiB available memory on the node where the printing process lives
------------------
     ethr =  1.71E-12,  avg # of iterations =  1.0

     negative rho (up, down):  5.346E-03 5.346E-03

     total cpu time spent up to now is    12995.2 secs

     total energy              =  -12271.35570922 Ry
     estimated scf accuracy    <       0.00000002 Ry

     total magnetization       =     0.01 Bohr mag/cell
     absolute magnetization    =     0.01 Bohr mag/cell

     iteration #237     ecut=    50.00 Ry     beta= 0.01
     Davidson diagonalization with overlap

---- Real-time Memory Report at c_bands before calling an iterative solver
          1207 MiB given to the printing process from OS
           709 MiB allocation reported by mallinfo(arena+hblkhd)
        228154 MiB available memory on the node where the printing process lives
------------------
     ethr =  1.70E-12,  avg # of iterations =  1.0

     negative rho (up, down):  5.346E-03 5.346E-03

     total cpu time spent up to now is    13047.3 secs

     total energy              =  -12271.35570923 Ry
     estimated scf accuracy    <       0.00000002 Ry

     total magnetization       =     0.01 Bohr mag/cell
     absolute magnetization    =     0.01 Bohr mag/cell

     iteration #238     ecut=    50.00 Ry     beta= 0.01
     Davidson diagonalization with overlap

---- Real-time Memory Report at c_bands before calling an iterative solver
          1207 MiB given to the printing process from OS
           709 MiB allocation reported by mallinfo(arena+hblkhd)
        228179 MiB available memory on the node where the printing process lives
------------------
     ethr =  1.68E-12,  avg # of iterations =  2.0

     negative rho (up, down):  5.346E-03 5.346E-03

     total cpu time spent up to now is    13105.6 secs

     total energy              =  -12271.35570924 Ry
     estimated scf accuracy    <       0.00000002 Ry

     total magnetization       =     0.01 Bohr mag/cell
     absolute magnetization    =     0.01 Bohr mag/cell

     iteration #239     ecut=    50.00 Ry     beta= 0.01
     Davidson diagonalization with overlap

---- Real-time Memory Report at c_bands before calling an iterative solver
          1207 MiB given to the printing process from OS
           709 MiB allocation reported by mallinfo(arena+hblkhd)
        227860 MiB available memory on the node where the printing process lives
------------------
     ethr =  1.68E-12,  avg # of iterations =  1.0

     negative rho (up, down):  5.346E-03 5.346E-03

     total cpu time spent up to now is    13155.5 secs

     total energy              =  -12271.35570924 Ry
     estimated scf accuracy    <       0.00000002 Ry

     total magnetization       =     0.01 Bohr mag/cell
     absolute magnetization    =     0.01 Bohr mag/cell

     iteration #240     ecut=    50.00 Ry     beta= 0.01
     Davidson diagonalization with overlap

---- Real-time Memory Report at c_bands before calling an iterative solver
          1207 MiB given to the printing process from OS
           709 MiB allocation reported by mallinfo(arena+hblkhd)
        227933 MiB available memory on the node where the printing process lives
------------------
     ethr =  1.66E-12,  avg # of iterations =  1.0

     negative rho (up, down):  5.345E-03 5.345E-03

     total cpu time spent up to now is    13206.8 secs

     total energy              =  -12271.35570923 Ry
     estimated scf accuracy    <       0.00000002 Ry

     total magnetization       =     0.01 Bohr mag/cell
     absolute magnetization    =     0.01 Bohr mag/cell

     iteration #241     ecut=    50.00 Ry     beta= 0.01
     Davidson diagonalization with overlap

---- Real-time Memory Report at c_bands before calling an iterative solver
          1207 MiB given to the printing process from OS
           709 MiB allocation reported by mallinfo(arena+hblkhd)
        228378 MiB available memory on the node where the printing process lives
------------------
     ethr =  1.65E-12,  avg # of iterations =  1.0

     negative rho (up, down):  5.345E-03 5.345E-03

     total cpu time spent up to now is    13258.3 secs

     total energy              =  -12271.35570923 Ry
     estimated scf accuracy    <       0.00000002 Ry

     total magnetization       =     0.01 Bohr mag/cell
     absolute magnetization    =     0.01 Bohr mag/cell

     iteration #242     ecut=    50.00 Ry     beta= 0.01
     Davidson diagonalization with overlap

---- Real-time Memory Report at c_bands before calling an iterative solver
          1207 MiB given to the printing process from OS
           709 MiB allocation reported by mallinfo(arena+hblkhd)
        228162 MiB available memory on the node where the printing process lives
------------------
     ethr =  1.60E-12,  avg # of iterations =  1.6

     negative rho (up, down):  5.343E-03 5.343E-03

     total cpu time spent up to now is    13316.4 secs

     total energy              =  -12271.35570922 Ry
     estimated scf accuracy    <       0.00000002 Ry

     total magnetization       =     0.01 Bohr mag/cell
     absolute magnetization    =     0.01 Bohr mag/cell

     iteration #243     ecut=    50.00 Ry     beta= 0.01
     Davidson diagonalization with overlap

---- Real-time Memory Report at c_bands before calling an iterative solver
          1207 MiB given to the printing process from OS
           709 MiB allocation reported by mallinfo(arena+hblkhd)
        228174 MiB available memory on the node where the printing process lives
------------------
     ethr =  1.54E-12,  avg # of iterations =  1.0

     negative rho (up, down):  5.344E-03 5.344E-03

     total cpu time spent up to now is    13367.4 secs

     total energy              =  -12271.35570923 Ry
     estimated scf accuracy    <       0.00000001 Ry

     total magnetization       =     0.01 Bohr mag/cell
     absolute magnetization    =     0.01 Bohr mag/cell

     iteration #244     ecut=    50.00 Ry     beta= 0.01
     Davidson diagonalization with overlap

---- Real-time Memory Report at c_bands before calling an iterative solver
          1207 MiB given to the printing process from OS
           709 MiB allocation reported by mallinfo(arena+hblkhd)
        228229 MiB available memory on the node where the printing process lives
------------------
     ethr =  1.41E-12,  avg # of iterations =  2.0

     negative rho (up, down):  5.344E-03 5.344E-03

     total cpu time spent up to now is    13424.8 secs

     total energy              =  -12271.35570923 Ry
     estimated scf accuracy    <       0.00000001 Ry

     total magnetization       =     0.01 Bohr mag/cell
     absolute magnetization    =     0.01 Bohr mag/cell

     iteration #245     ecut=    50.00 Ry     beta= 0.01
     Davidson diagonalization with overlap

---- Real-time Memory Report at c_bands before calling an iterative solver
          1207 MiB given to the printing process from OS
           709 MiB allocation reported by mallinfo(arena+hblkhd)
        227966 MiB available memory on the node where the printing process lives
------------------
     ethr =  1.39E-12,  avg # of iterations =  1.0

     negative rho (up, down):  5.344E-03 5.344E-03

     total cpu time spent up to now is    13475.7 secs

     total energy              =  -12271.35570923 Ry
     estimated scf accuracy    <       0.00000001 Ry

     total magnetization       =     0.01 Bohr mag/cell
     absolute magnetization    =     0.01 Bohr mag/cell

     iteration #246     ecut=    50.00 Ry     beta= 0.01
     Davidson diagonalization with overlap

---- Real-time Memory Report at c_bands before calling an iterative solver
          1207 MiB given to the printing process from OS
           709 MiB allocation reported by mallinfo(arena+hblkhd)
        227879 MiB available memory on the node where the printing process lives
------------------
     ethr =  1.37E-12,  avg # of iterations =  1.0

     negative rho (up, down):  5.344E-03 5.344E-03

     total cpu time spent up to now is    13527.3 secs

     total energy              =  -12271.35570924 Ry
     estimated scf accuracy    <       0.00000001 Ry

     total magnetization       =     0.01 Bohr mag/cell
     absolute magnetization    =     0.01 Bohr mag/cell

     iteration #247     ecut=    50.00 Ry     beta= 0.01
     Davidson diagonalization with overlap

---- Real-time Memory Report at c_bands before calling an iterative solver
          1207 MiB given to the printing process from OS
           709 MiB allocation reported by mallinfo(arena+hblkhd)
        228094 MiB available memory on the node where the printing process lives
------------------
     ethr =  1.36E-12,  avg # of iterations =  1.0

     negative rho (up, down):  5.344E-03 5.344E-03

     total cpu time spent up to now is    13578.2 secs

     total energy              =  -12271.35570924 Ry
     estimated scf accuracy    <       0.00000001 Ry

     total magnetization       =     0.01 Bohr mag/cell
     absolute magnetization    =     0.01 Bohr mag/cell

     iteration #248     ecut=    50.00 Ry     beta= 0.01
     Davidson diagonalization with overlap

---- Real-time Memory Report at c_bands before calling an iterative solver
          1207 MiB given to the printing process from OS
           709 MiB allocation reported by mallinfo(arena+hblkhd)
        228079 MiB available memory on the node where the printing process lives
------------------
     ethr =  1.34E-12,  avg # of iterations =  1.0

     negative rho (up, down):  5.344E-03 5.344E-03

     total cpu time spent up to now is    13628.6 secs

     total energy              =  -12271.35570924 Ry
     estimated scf accuracy    <       0.00000001 Ry

     total magnetization       =     0.01 Bohr mag/cell
     absolute magnetization    =     0.01 Bohr mag/cell

     iteration #249     ecut=    50.00 Ry     beta= 0.01
     Davidson diagonalization with overlap

---- Real-time Memory Report at c_bands before calling an iterative solver
          1207 MiB given to the printing process from OS
           709 MiB allocation reported by mallinfo(arena+hblkhd)
        227904 MiB available memory on the node where the printing process lives
------------------
     ethr =  1.27E-12,  avg # of iterations =  1.0

     negative rho (up, down):  5.344E-03 5.344E-03

     total cpu time spent up to now is    13685.8 secs

     total energy              =  -12271.35570923 Ry
     estimated scf accuracy    <       0.00000001 Ry

     total magnetization       =     0.01 Bohr mag/cell
     absolute magnetization    =     0.01 Bohr mag/cell

     iteration #250     ecut=    50.00 Ry     beta= 0.01
     Davidson diagonalization with overlap

---- Real-time Memory Report at c_bands before calling an iterative solver
          1207 MiB given to the printing process from OS
           709 MiB allocation reported by mallinfo(arena+hblkhd)
        228513 MiB available memory on the node where the printing process lives
------------------
     ethr =  1.26E-12,  avg # of iterations =  1.0

     negative rho (up, down):  5.344E-03 5.344E-03

     total cpu time spent up to now is    13737.3 secs

     total energy              =  -12271.35570923 Ry
     estimated scf accuracy    <       0.00000001 Ry

     total magnetization       =     0.01 Bohr mag/cell
     absolute magnetization    =     0.01 Bohr mag/cell

     iteration #251     ecut=    50.00 Ry     beta= 0.01
     Davidson diagonalization with overlap

---- Real-time Memory Report at c_bands before calling an iterative solver
          1207 MiB given to the printing process from OS
           709 MiB allocation reported by mallinfo(arena+hblkhd)
        228058 MiB available memory on the node where the printing process lives
------------------
     ethr =  1.24E-12,  avg # of iterations =  1.1

     negative rho (up, down):  5.344E-03 5.344E-03

     total cpu time spent up to now is    13792.9 secs

     total energy              =  -12271.35570923 Ry
     estimated scf accuracy    <       0.00000001 Ry

     total magnetization       =     0.01 Bohr mag/cell
     absolute magnetization    =     0.01 Bohr mag/cell

     iteration #252     ecut=    50.00 Ry     beta= 0.01
     Davidson diagonalization with overlap

---- Real-time Memory Report at c_bands before calling an iterative solver
          1207 MiB given to the printing process from OS
           709 MiB allocation reported by mallinfo(arena+hblkhd)
        228114 MiB available memory on the node where the printing process lives
------------------
     ethr =  1.23E-12,  avg # of iterations =  2.0

     negative rho (up, down):  5.344E-03 5.344E-03

     total cpu time spent up to now is    13855.0 secs

     total energy              =  -12271.35570922 Ry
     estimated scf accuracy    <       0.00000001 Ry

     total magnetization       =     0.01 Bohr mag/cell
     absolute magnetization    =     0.01 Bohr mag/cell

     iteration #253     ecut=    50.00 Ry     beta= 0.01
     Davidson diagonalization with overlap

---- Real-time Memory Report at c_bands before calling an iterative solver
          1207 MiB given to the printing process from OS
           709 MiB allocation reported by mallinfo(arena+hblkhd)
        228059 MiB available memory on the node where the printing process lives
------------------
     ethr =  1.22E-12,  avg # of iterations =  2.0

     negative rho (up, down):  5.340E-03 5.340E-03

     total cpu time spent up to now is    13915.3 secs

     total energy              =  -12271.35570918 Ry
     estimated scf accuracy    <       0.00000001 Ry

     total magnetization       =     0.00 Bohr mag/cell
     absolute magnetization    =     0.00 Bohr mag/cell

     iteration #254     ecut=    50.00 Ry     beta= 0.01
     Davidson diagonalization with overlap

---- Real-time Memory Report at c_bands before calling an iterative solver
          1207 MiB given to the printing process from OS
           709 MiB allocation reported by mallinfo(arena+hblkhd)
        228031 MiB available memory on the node where the printing process lives
------------------
     ethr =  1.16E-12,  avg # of iterations =  2.0

     negative rho (up, down):  5.340E-03 5.340E-03

     total cpu time spent up to now is    13974.3 secs

     total energy              =  -12271.35570918 Ry
     estimated scf accuracy    <       0.00000001 Ry

     total magnetization       =     0.00 Bohr mag/cell
     absolute magnetization    =     0.00 Bohr mag/cell

     iteration #255     ecut=    50.00 Ry     beta= 0.01
     Davidson diagonalization with overlap

---- Real-time Memory Report at c_bands before calling an iterative solver
          1207 MiB given to the printing process from OS
           709 MiB allocation reported by mallinfo(arena+hblkhd)
        228124 MiB available memory on the node where the printing process lives
------------------
     ethr =  1.08E-12,  avg # of iterations =  1.0

     negative rho (up, down):  5.341E-03 5.341E-03

     total cpu time spent up to now is    14024.5 secs

     total energy              =  -12271.35570919 Ry
     estimated scf accuracy    <       0.00000001 Ry

     total magnetization       =     0.00 Bohr mag/cell
     absolute magnetization    =     0.00 Bohr mag/cell

     iteration #256     ecut=    50.00 Ry     beta= 0.01
     Davidson diagonalization with overlap

---- Real-time Memory Report at c_bands before calling an iterative solver
          1207 MiB given to the printing process from OS
           709 MiB allocation reported by mallinfo(arena+hblkhd)
        227906 MiB available memory on the node where the printing process lives
------------------
     ethr =  1.08E-12,  avg # of iterations =  1.0

     negative rho (up, down):  5.339E-03 5.339E-03

     total cpu time spent up to now is    14075.3 secs

     total energy              =  -12271.35570917 Ry
     estimated scf accuracy    <       0.00000001 Ry

     total magnetization       =     0.00 Bohr mag/cell
     absolute magnetization    =     0.00 Bohr mag/cell

     iteration #257     ecut=    50.00 Ry     beta= 0.01
     Davidson diagonalization with overlap

---- Real-time Memory Report at c_bands before calling an iterative solver
          1207 MiB given to the printing process from OS
           709 MiB allocation reported by mallinfo(arena+hblkhd)
        228105 MiB available memory on the node where the printing process lives
------------------
     ethr =  1.08E-12,  avg # of iterations =  1.0

     negative rho (up, down):  5.339E-03 5.339E-03

     total cpu time spent up to now is    14126.0 secs

     total energy              =  -12271.35570917 Ry
     estimated scf accuracy    <       0.00000001 Ry

     total magnetization       =     0.00 Bohr mag/cell
     absolute magnetization    =     0.00 Bohr mag/cell

     iteration #258     ecut=    50.00 Ry     beta= 0.01
     Davidson diagonalization with overlap

---- Real-time Memory Report at c_bands before calling an iterative solver
          1207 MiB given to the printing process from OS
           709 MiB allocation reported by mallinfo(arena+hblkhd)
        228247 MiB available memory on the node where the printing process lives
------------------
     ethr =  1.08E-12,  avg # of iterations =  1.0

     negative rho (up, down):  5.339E-03 5.339E-03

     total cpu time spent up to now is    14176.8 secs

     total energy              =  -12271.35570917 Ry
     estimated scf accuracy    <       0.00000001 Ry

     total magnetization       =     0.00 Bohr mag/cell
     absolute magnetization    =     0.00 Bohr mag/cell

     iteration #259     ecut=    50.00 Ry     beta= 0.01
     Davidson diagonalization with overlap

---- Real-time Memory Report at c_bands before calling an iterative solver
          1208 MiB given to the printing process from OS
           709 MiB allocation reported by mallinfo(arena+hblkhd)
        228304 MiB available memory on the node where the printing process lives
------------------
     ethr =  1.08E-12,  avg # of iterations =  1.0

     negative rho (up, down):  5.339E-03 5.339E-03

     total cpu time spent up to now is    14227.1 secs

     total energy              =  -12271.35570917 Ry
     estimated scf accuracy    <       0.00000001 Ry

     total magnetization       =     0.00 Bohr mag/cell
     absolute magnetization    =     0.00 Bohr mag/cell

     iteration #260     ecut=    50.00 Ry     beta= 0.01
     Davidson diagonalization with overlap

---- Real-time Memory Report at c_bands before calling an iterative solver
          1208 MiB given to the printing process from OS
           709 MiB allocation reported by mallinfo(arena+hblkhd)
        228299 MiB available memory on the node where the printing process lives
------------------
     ethr =  1.08E-12,  avg # of iterations =  1.6

     negative rho (up, down):  5.338E-03 5.338E-03

     total cpu time spent up to now is    14286.3 secs

     total energy              =  -12271.35570917 Ry
     estimated scf accuracy    <       0.00000001 Ry

     total magnetization       =     0.00 Bohr mag/cell
     absolute magnetization    =     0.00 Bohr mag/cell

     iteration #261     ecut=    50.00 Ry     beta= 0.01
     Davidson diagonalization with overlap

---- Real-time Memory Report at c_bands before calling an iterative solver
          1208 MiB given to the printing process from OS
           709 MiB allocation reported by mallinfo(arena+hblkhd)
        228125 MiB available memory on the node where the printing process lives
------------------
     ethr =  1.08E-12,  avg # of iterations =  1.2

     negative rho (up, down):  5.338E-03 5.339E-03

     total cpu time spent up to now is    14341.8 secs

     total energy              =  -12271.35570916 Ry
     estimated scf accuracy    <       0.00000001 Ry

     total magnetization       =     0.00 Bohr mag/cell
     absolute magnetization    =     0.00 Bohr mag/cell

     iteration #262     ecut=    50.00 Ry     beta= 0.01
     Davidson diagonalization with overlap

---- Real-time Memory Report at c_bands before calling an iterative solver
          1208 MiB given to the printing process from OS
           709 MiB allocation reported by mallinfo(arena+hblkhd)
        228041 MiB available memory on the node where the printing process lives
------------------
     ethr =  1.08E-12,  avg # of iterations =  1.0

     negative rho (up, down):  5.338E-03 5.338E-03

     total cpu time spent up to now is    14393.7 secs

     total energy              =  -12271.35570916 Ry
     estimated scf accuracy    <       0.00000001 Ry

     total magnetization       =     0.00 Bohr mag/cell
     absolute magnetization    =     0.00 Bohr mag/cell

     iteration #263     ecut=    50.00 Ry     beta= 0.01
     Davidson diagonalization with overlap

---- Real-time Memory Report at c_bands before calling an iterative solver
          1208 MiB given to the printing process from OS
           709 MiB allocation reported by mallinfo(arena+hblkhd)
        228148 MiB available memory on the node where the printing process lives
------------------
     ethr =  1.08E-12,  avg # of iterations =  1.0

     negative rho (up, down):  5.338E-03 5.339E-03

     total cpu time spent up to now is    14444.0 secs

     total energy              =  -12271.35570917 Ry
     estimated scf accuracy    <       0.00000001 Ry

     total magnetization       =     0.00 Bohr mag/cell
     absolute magnetization    =     0.00 Bohr mag/cell

     iteration #264     ecut=    50.00 Ry     beta= 0.01
     Davidson diagonalization with overlap

---- Real-time Memory Report at c_bands before calling an iterative solver
          1208 MiB given to the printing process from OS
           709 MiB allocation reported by mallinfo(arena+hblkhd)
        228228 MiB available memory on the node where the printing process lives
------------------
     ethr =  1.08E-12,  avg # of iterations =  1.0

     negative rho (up, down):  5.338E-03 5.338E-03

     total cpu time spent up to now is    14495.3 secs

     total energy              =  -12271.35570916 Ry
     estimated scf accuracy    <       0.00000002 Ry

     total magnetization       =    -0.00 Bohr mag/cell
     absolute magnetization    =     0.00 Bohr mag/cell

     iteration #265     ecut=    50.00 Ry     beta= 0.01
     Davidson diagonalization with overlap

---- Real-time Memory Report at c_bands before calling an iterative solver
          1208 MiB given to the printing process from OS
           709 MiB allocation reported by mallinfo(arena+hblkhd)
        228210 MiB available memory on the node where the printing process lives
------------------
     ethr =  1.08E-12,  avg # of iterations =  1.0

     negative rho (up, down):  5.339E-03 5.339E-03

     total cpu time spent up to now is    14546.1 secs

     total energy              =  -12271.35570917 Ry
     estimated scf accuracy    <       0.00000002 Ry

     total magnetization       =    -0.00 Bohr mag/cell
     absolute magnetization    =     0.00 Bohr mag/cell

     iteration #266     ecut=    50.00 Ry     beta= 0.01
     Davidson diagonalization with overlap

---- Real-time Memory Report at c_bands before calling an iterative solver
          1208 MiB given to the printing process from OS
           709 MiB allocation reported by mallinfo(arena+hblkhd)
        228224 MiB available memory on the node where the printing process lives
------------------
     ethr =  1.08E-12,  avg # of iterations =  1.0

     negative rho (up, down):  5.338E-03 5.338E-03

     total cpu time spent up to now is    14598.2 secs

     total energy              =  -12271.35570916 Ry
     estimated scf accuracy    <       0.00000001 Ry

     total magnetization       =    -0.00 Bohr mag/cell
     absolute magnetization    =     0.00 Bohr mag/cell

     iteration #267     ecut=    50.00 Ry     beta= 0.01
     Davidson diagonalization with overlap

---- Real-time Memory Report at c_bands before calling an iterative solver
          1208 MiB given to the printing process from OS
           709 MiB allocation reported by mallinfo(arena+hblkhd)
        228378 MiB available memory on the node where the printing process lives
------------------
     ethr =  1.08E-12,  avg # of iterations =  1.0

     negative rho (up, down):  5.338E-03 5.338E-03

     total cpu time spent up to now is    14651.3 secs

     total energy              =  -12271.35570916 Ry
     estimated scf accuracy    <       0.00000002 Ry

     total magnetization       =    -0.00 Bohr mag/cell
     absolute magnetization    =     0.00 Bohr mag/cell

     iteration #268     ecut=    50.00 Ry     beta= 0.01
     Davidson diagonalization with overlap

---- Real-time Memory Report at c_bands before calling an iterative solver
          1208 MiB given to the printing process from OS
           709 MiB allocation reported by mallinfo(arena+hblkhd)
        228199 MiB available memory on the node where the printing process lives
------------------
     ethr =  1.08E-12,  avg # of iterations =  2.0

     negative rho (up, down):  5.338E-03 5.338E-03

     total cpu time spent up to now is    14709.5 secs

     total energy              =  -12271.35570916 Ry
     estimated scf accuracy    <       0.00000002 Ry

     total magnetization       =     0.00 Bohr mag/cell
     absolute magnetization    =     0.00 Bohr mag/cell

     iteration #269     ecut=    50.00 Ry     beta= 0.01
     Davidson diagonalization with overlap

---- Real-time Memory Report at c_bands before calling an iterative solver
          1208 MiB given to the printing process from OS
           709 MiB allocation reported by mallinfo(arena+hblkhd)
        227893 MiB available memory on the node where the printing process lives
------------------
     ethr =  1.08E-12,  avg # of iterations =  2.0

     negative rho (up, down):  5.338E-03 5.338E-03

     total cpu time spent up to now is    14773.0 secs

     total energy              =  -12271.35570916 Ry
     estimated scf accuracy    <       0.00000002 Ry

     total magnetization       =    -0.00 Bohr mag/cell
     absolute magnetization    =     0.00 Bohr mag/cell

     iteration #270     ecut=    50.00 Ry     beta= 0.01
     Davidson diagonalization with overlap

---- Real-time Memory Report at c_bands before calling an iterative solver
          1208 MiB given to the printing process from OS
           709 MiB allocation reported by mallinfo(arena+hblkhd)
        227948 MiB available memory on the node where the printing process lives
------------------
     ethr =  1.08E-12,  avg # of iterations =  1.0

     negative rho (up, down):  5.338E-03 5.338E-03

     total cpu time spent up to now is    14824.7 secs

     total energy              =  -12271.35570916 Ry
     estimated scf accuracy    <       0.00000002 Ry

     total magnetization       =    -0.00 Bohr mag/cell
     absolute magnetization    =     0.00 Bohr mag/cell

     iteration #271     ecut=    50.00 Ry     beta= 0.01
     Davidson diagonalization with overlap

---- Real-time Memory Report at c_bands before calling an iterative solver
          1208 MiB given to the printing process from OS
           709 MiB allocation reported by mallinfo(arena+hblkhd)
        227842 MiB available memory on the node where the printing process lives
------------------
     ethr =  1.08E-12,  avg # of iterations =  1.0

     negative rho (up, down):  5.338E-03 5.338E-03

     total cpu time spent up to now is    14876.1 secs

     total energy              =  -12271.35570916 Ry
     estimated scf accuracy    <       0.00000002 Ry

     total magnetization       =    -0.00 Bohr mag/cell
     absolute magnetization    =     0.00 Bohr mag/cell

     iteration #272     ecut=    50.00 Ry     beta= 0.01
     Davidson diagonalization with overlap

---- Real-time Memory Report at c_bands before calling an iterative solver
          1208 MiB given to the printing process from OS
           709 MiB allocation reported by mallinfo(arena+hblkhd)
        228164 MiB available memory on the node where the printing process lives
------------------
     ethr =  1.08E-12,  avg # of iterations =  1.0

     negative rho (up, down):  5.338E-03 5.338E-03

     total cpu time spent up to now is    14926.9 secs

     total energy              =  -12271.35570916 Ry
     estimated scf accuracy    <       0.00000002 Ry

     total magnetization       =    -0.00 Bohr mag/cell
     absolute magnetization    =     0.00 Bohr mag/cell

     iteration #273     ecut=    50.00 Ry     beta= 0.01
     Davidson diagonalization with overlap

---- Real-time Memory Report at c_bands before calling an iterative solver
          1208 MiB given to the printing process from OS
           709 MiB allocation reported by mallinfo(arena+hblkhd)
        228261 MiB available memory on the node where the printing process lives
------------------
     ethr =  1.08E-12,  avg # of iterations =  1.0

     negative rho (up, down):  5.338E-03 5.338E-03

     total cpu time spent up to now is    14977.2 secs

     total energy              =  -12271.35570916 Ry
     estimated scf accuracy    <       0.00000002 Ry

     total magnetization       =    -0.00 Bohr mag/cell
     absolute magnetization    =     0.00 Bohr mag/cell

     iteration #274     ecut=    50.00 Ry     beta= 0.01
     Davidson diagonalization with overlap

---- Real-time Memory Report at c_bands before calling an iterative solver
          1208 MiB given to the printing process from OS
           709 MiB allocation reported by mallinfo(arena+hblkhd)
        228196 MiB available memory on the node where the printing process lives
------------------
     ethr =  1.08E-12,  avg # of iterations =  2.0

     negative rho (up, down):  5.338E-03 5.338E-03

     total cpu time spent up to now is    15035.1 secs

     total energy              =  -12271.35570916 Ry
     estimated scf accuracy    <       0.00000002 Ry

     total magnetization       =     0.00 Bohr mag/cell
     absolute magnetization    =     0.00 Bohr mag/cell

     iteration #275     ecut=    50.00 Ry     beta= 0.01
     Davidson diagonalization with overlap

---- Real-time Memory Report at c_bands before calling an iterative solver
          1208 MiB given to the printing process from OS
           709 MiB allocation reported by mallinfo(arena+hblkhd)
        228267 MiB available memory on the node where the printing process lives
------------------
     ethr =  1.08E-12,  avg # of iterations =  1.5

     negative rho (up, down):  5.339E-03 5.339E-03

     total cpu time spent up to now is    15091.2 secs

     total energy              =  -12271.35570917 Ry
     estimated scf accuracy    <       0.00000002 Ry

     total magnetization       =    -0.00 Bohr mag/cell
     absolute magnetization    =     0.00 Bohr mag/cell

     iteration #276     ecut=    50.00 Ry     beta= 0.01
     Davidson diagonalization with overlap

---- Real-time Memory Report at c_bands before calling an iterative solver
          1208 MiB given to the printing process from OS
           709 MiB allocation reported by mallinfo(arena+hblkhd)
        228181 MiB available memory on the node where the printing process lives
------------------
     ethr =  1.08E-12,  avg # of iterations =  2.0

     negative rho (up, down):  5.339E-03 5.339E-03

     total cpu time spent up to now is    15148.9 secs

     total energy              =  -12271.35570918 Ry
     estimated scf accuracy    <       0.00000002 Ry

     total magnetization       =    -0.00 Bohr mag/cell
     absolute magnetization    =     0.00 Bohr mag/cell

     iteration #277     ecut=    50.00 Ry     beta= 0.01
     Davidson diagonalization with overlap

---- Real-time Memory Report at c_bands before calling an iterative solver
          1208 MiB given to the printing process from OS
           709 MiB allocation reported by mallinfo(arena+hblkhd)
        228277 MiB available memory on the node where the printing process lives
------------------
     ethr =  1.08E-12,  avg # of iterations =  1.0

     negative rho (up, down):  5.339E-03 5.339E-03

     total cpu time spent up to now is    15200.0 secs

     total energy              =  -12271.35570917 Ry
     estimated scf accuracy    <       0.00000002 Ry

     total magnetization       =    -0.00 Bohr mag/cell
     absolute magnetization    =     0.00 Bohr mag/cell

     iteration #278     ecut=    50.00 Ry     beta= 0.01
     Davidson diagonalization with overlap

---- Real-time Memory Report at c_bands before calling an iterative solver
          1208 MiB given to the printing process from OS
           709 MiB allocation reported by mallinfo(arena+hblkhd)
        228248 MiB available memory on the node where the printing process lives
------------------
     ethr =  1.08E-12,  avg # of iterations =  1.0

     negative rho (up, down):  5.339E-03 5.339E-03

     total cpu time spent up to now is    15250.6 secs

     total energy              =  -12271.35570917 Ry
     estimated scf accuracy    <       0.00000002 Ry

     total magnetization       =    -0.00 Bohr mag/cell
     absolute magnetization    =     0.00 Bohr mag/cell

     iteration #279     ecut=    50.00 Ry     beta= 0.01
     Davidson diagonalization with overlap

---- Real-time Memory Report at c_bands before calling an iterative solver
          1208 MiB given to the printing process from OS
           709 MiB allocation reported by mallinfo(arena+hblkhd)
        227882 MiB available memory on the node where the printing process lives
------------------
     ethr =  1.08E-12,  avg # of iterations =  1.0

     negative rho (up, down):  5.340E-03 5.340E-03

     total cpu time spent up to now is    15302.1 secs

     total energy              =  -12271.35570918 Ry
     estimated scf accuracy    <       0.00000002 Ry

     total magnetization       =    -0.00 Bohr mag/cell
     absolute magnetization    =     0.00 Bohr mag/cell

     iteration #280     ecut=    50.00 Ry     beta= 0.01
     Davidson diagonalization with overlap

---- Real-time Memory Report at c_bands before calling an iterative solver
          1208 MiB given to the printing process from OS
           709 MiB allocation reported by mallinfo(arena+hblkhd)
        228215 MiB available memory on the node where the printing process lives
------------------
     ethr =  1.08E-12,  avg # of iterations =  1.0

     negative rho (up, down):  5.340E-03 5.340E-03

     total cpu time spent up to now is    15354.3 secs

     total energy              =  -12271.35570918 Ry
     estimated scf accuracy    <       0.00000002 Ry

     total magnetization       =    -0.00 Bohr mag/cell
     absolute magnetization    =     0.00 Bohr mag/cell

     iteration #281     ecut=    50.00 Ry     beta= 0.01
     Davidson diagonalization with overlap

---- Real-time Memory Report at c_bands before calling an iterative solver
          1208 MiB given to the printing process from OS
           709 MiB allocation reported by mallinfo(arena+hblkhd)
        228135 MiB available memory on the node where the printing process lives
------------------
     ethr =  1.08E-12,  avg # of iterations =  1.0

     negative rho (up, down):  5.340E-03 5.340E-03

     total cpu time spent up to now is    15404.4 secs

     total energy              =  -12271.35570918 Ry
     estimated scf accuracy    <       0.00000002 Ry

     total magnetization       =    -0.00 Bohr mag/cell
     absolute magnetization    =     0.00 Bohr mag/cell

     iteration #282     ecut=    50.00 Ry     beta= 0.01
     Davidson diagonalization with overlap

---- Real-time Memory Report at c_bands before calling an iterative solver
          1208 MiB given to the printing process from OS
           709 MiB allocation reported by mallinfo(arena+hblkhd)
        228112 MiB available memory on the node where the printing process lives
------------------
     ethr =  1.08E-12,  avg # of iterations =  1.0

     negative rho (up, down):  5.338E-03 5.338E-03

     total cpu time spent up to now is    15455.4 secs

     total energy              =  -12271.35570916 Ry
     estimated scf accuracy    <       0.00000002 Ry

     total magnetization       =    -0.00 Bohr mag/cell
     absolute magnetization    =     0.00 Bohr mag/cell

     iteration #283     ecut=    50.00 Ry     beta= 0.01
     Davidson diagonalization with overlap

---- Real-time Memory Report at c_bands before calling an iterative solver
          1208 MiB given to the printing process from OS
           709 MiB allocation reported by mallinfo(arena+hblkhd)
        228180 MiB available memory on the node where the printing process lives
------------------
     ethr =  1.08E-12,  avg # of iterations =  2.0

     negative rho (up, down):  5.338E-03 5.338E-03

     total cpu time spent up to now is    15514.3 secs

     total energy              =  -12271.35570916 Ry
     estimated scf accuracy    <       0.00000001 Ry

     total magnetization       =     0.00 Bohr mag/cell
     absolute magnetization    =     0.00 Bohr mag/cell

     iteration #284     ecut=    50.00 Ry     beta= 0.01
     Davidson diagonalization with overlap

---- Real-time Memory Report at c_bands before calling an iterative solver
          1208 MiB given to the printing process from OS
           709 MiB allocation reported by mallinfo(arena+hblkhd)
        228228 MiB available memory on the node where the printing process lives
------------------
     ethr =  1.08E-12,  avg # of iterations =  1.0

     negative rho (up, down):  5.338E-03 5.338E-03

     total cpu time spent up to now is    15568.9 secs

     total energy              =  -12271.35570916 Ry
     estimated scf accuracy    <       0.00000001 Ry

     total magnetization       =     0.00 Bohr mag/cell
     absolute magnetization    =     0.00 Bohr mag/cell

     iteration #285     ecut=    50.00 Ry     beta= 0.01
     Davidson diagonalization with overlap

---- Real-time Memory Report at c_bands before calling an iterative solver
          1208 MiB given to the printing process from OS
           709 MiB allocation reported by mallinfo(arena+hblkhd)
        228200 MiB available memory on the node where the printing process lives
------------------
     ethr =  1.08E-12,  avg # of iterations =  1.0

     negative rho (up, down):  5.339E-03 5.339E-03

     total cpu time spent up to now is    15619.8 secs

     total energy              =  -12271.35570917 Ry
     estimated scf accuracy    <       0.00000001 Ry

     total magnetization       =     0.00 Bohr mag/cell
     absolute magnetization    =     0.00 Bohr mag/cell

     iteration #286     ecut=    50.00 Ry     beta= 0.01
     Davidson diagonalization with overlap

---- Real-time Memory Report at c_bands before calling an iterative solver
          1208 MiB given to the printing process from OS
           709 MiB allocation reported by mallinfo(arena+hblkhd)
        227991 MiB available memory on the node where the printing process lives
------------------
     ethr =  1.08E-12,  avg # of iterations =  1.0

     negative rho (up, down):  5.338E-03 5.338E-03

     total cpu time spent up to now is    15673.2 secs

     total energy              =  -12271.35570917 Ry
     estimated scf accuracy    <       0.00000001 Ry

     total magnetization       =     0.00 Bohr mag/cell
     absolute magnetization    =     0.00 Bohr mag/cell

     iteration #287     ecut=    50.00 Ry     beta= 0.01
     Davidson diagonalization with overlap

---- Real-time Memory Report at c_bands before calling an iterative solver
          1208 MiB given to the printing process from OS
           709 MiB allocation reported by mallinfo(arena+hblkhd)
        228062 MiB available memory on the node where the printing process lives
------------------
     ethr =  1.08E-12,  avg # of iterations =  1.0

     negative rho (up, down):  5.338E-03 5.338E-03

     total cpu time spent up to now is    15727.2 secs

     total energy              =  -12271.35570917 Ry
     estimated scf accuracy    <       0.00000001 Ry

     total magnetization       =     0.00 Bohr mag/cell
     absolute magnetization    =     0.00 Bohr mag/cell

     iteration #288     ecut=    50.00 Ry     beta= 0.01
     Davidson diagonalization with overlap

---- Real-time Memory Report at c_bands before calling an iterative solver
          1208 MiB given to the printing process from OS
           709 MiB allocation reported by mallinfo(arena+hblkhd)
        228184 MiB available memory on the node where the printing process lives
------------------
     ethr =  1.08E-12,  avg # of iterations =  1.0

     negative rho (up, down):  5.340E-03 5.340E-03

     total cpu time spent up to now is    15778.4 secs

     total energy              =  -12271.35570918 Ry
     estimated scf accuracy    <       0.00000001 Ry

     total magnetization       =     0.00 Bohr mag/cell
     absolute magnetization    =     0.00 Bohr mag/cell

     iteration #289     ecut=    50.00 Ry     beta= 0.01
     Davidson diagonalization with overlap

---- Real-time Memory Report at c_bands before calling an iterative solver
          1208 MiB given to the printing process from OS
           709 MiB allocation reported by mallinfo(arena+hblkhd)
        227995 MiB available memory on the node where the printing process lives
------------------
     ethr =  1.08E-12,  avg # of iterations =  1.0

     negative rho (up, down):  5.340E-03 5.340E-03

     total cpu time spent up to now is    15829.3 secs

     total energy              =  -12271.35570918 Ry
     estimated scf accuracy    <       0.00000001 Ry

     total magnetization       =     0.00 Bohr mag/cell
     absolute magnetization    =     0.00 Bohr mag/cell

     iteration #290     ecut=    50.00 Ry     beta= 0.01
     Davidson diagonalization with overlap

---- Real-time Memory Report at c_bands before calling an iterative solver
          1208 MiB given to the printing process from OS
           709 MiB allocation reported by mallinfo(arena+hblkhd)
        228114 MiB available memory on the node where the printing process lives
------------------
     ethr =  1.07E-12,  avg # of iterations =  1.0

     negative rho (up, down):  5.339E-03 5.340E-03

     total cpu time spent up to now is    15880.0 secs

     total energy              =  -12271.35570918 Ry
     estimated scf accuracy    <       0.00000001 Ry

     total magnetization       =     0.00 Bohr mag/cell
     absolute magnetization    =     0.00 Bohr mag/cell

     iteration #291     ecut=    50.00 Ry     beta= 0.01
     Davidson diagonalization with overlap

---- Real-time Memory Report at c_bands before calling an iterative solver
          1208 MiB given to the printing process from OS
           709 MiB allocation reported by mallinfo(arena+hblkhd)
        228344 MiB available memory on the node where the printing process lives
------------------
     ethr =  1.07E-12,  avg # of iterations =  1.0

     negative rho (up, down):  5.339E-03 5.339E-03

     total cpu time spent up to now is    15932.5 secs

     total energy              =  -12271.35570917 Ry
     estimated scf accuracy    <       0.00000001 Ry

     total magnetization       =     0.00 Bohr mag/cell
     absolute magnetization    =     0.00 Bohr mag/cell

     iteration #292     ecut=    50.00 Ry     beta= 0.01
     Davidson diagonalization with overlap

---- Real-time Memory Report at c_bands before calling an iterative solver
          1208 MiB given to the printing process from OS
           709 MiB allocation reported by mallinfo(arena+hblkhd)
        228161 MiB available memory on the node where the printing process lives
------------------
     ethr =  1.06E-12,  avg # of iterations =  1.4

     negative rho (up, down):  5.339E-03 5.339E-03

     total cpu time spent up to now is    15989.0 secs

     total energy              =  -12271.35570917 Ry
     estimated scf accuracy    <       0.00000001 Ry

     total magnetization       =     0.00 Bohr mag/cell
     absolute magnetization    =     0.00 Bohr mag/cell

     iteration #293     ecut=    50.00 Ry     beta= 0.01
     Davidson diagonalization with overlap

---- Real-time Memory Report at c_bands before calling an iterative solver
          1208 MiB given to the printing process from OS
           709 MiB allocation reported by mallinfo(arena+hblkhd)
        228271 MiB available memory on the node where the printing process lives
------------------
     ethr =  1.06E-12,  avg # of iterations =  1.0

     negative rho (up, down):  5.339E-03 5.339E-03

     total cpu time spent up to now is    16040.3 secs

     total energy              =  -12271.35570917 Ry
     estimated scf accuracy    <       0.00000001 Ry

     total magnetization       =     0.00 Bohr mag/cell
     absolute magnetization    =     0.00 Bohr mag/cell

     iteration #294     ecut=    50.00 Ry     beta= 0.01
     Davidson diagonalization with overlap

---- Real-time Memory Report at c_bands before calling an iterative solver
          1208 MiB given to the printing process from OS
           709 MiB allocation reported by mallinfo(arena+hblkhd)
        228117 MiB available memory on the node where the printing process lives
------------------
     ethr =  1.06E-12,  avg # of iterations =  1.0

     negative rho (up, down):  5.339E-03 5.339E-03

     total cpu time spent up to now is    16091.0 secs

     total energy              =  -12271.35570917 Ry
     estimated scf accuracy    <       0.00000001 Ry

     total magnetization       =     0.00 Bohr mag/cell
     absolute magnetization    =     0.00 Bohr mag/cell

     iteration #295     ecut=    50.00 Ry     beta= 0.01
     Davidson diagonalization with overlap

---- Real-time Memory Report at c_bands before calling an iterative solver
          1208 MiB given to the printing process from OS
           709 MiB allocation reported by mallinfo(arena+hblkhd)
        228311 MiB available memory on the node where the printing process lives
------------------
     ethr =  1.06E-12,  avg # of iterations =  2.0

     negative rho (up, down):  5.339E-03 5.339E-03

     total cpu time spent up to now is    16149.0 secs

     total energy              =  -12271.35570917 Ry
     estimated scf accuracy    <       0.00000001 Ry

     total magnetization       =     0.01 Bohr mag/cell
     absolute magnetization    =     0.01 Bohr mag/cell

     iteration #296     ecut=    50.00 Ry     beta= 0.01
     Davidson diagonalization with overlap

---- Real-time Memory Report at c_bands before calling an iterative solver
          1208 MiB given to the printing process from OS
           709 MiB allocation reported by mallinfo(arena+hblkhd)
        228308 MiB available memory on the node where the printing process lives
------------------
     ethr =  1.06E-12,  avg # of iterations =  1.0

     negative rho (up, down):  5.339E-03 5.339E-03

     total cpu time spent up to now is    16201.2 secs

     total energy              =  -12271.35570917 Ry
     estimated scf accuracy    <       0.00000001 Ry

     total magnetization       =     0.00 Bohr mag/cell
     absolute magnetization    =     0.00 Bohr mag/cell

     iteration #297     ecut=    50.00 Ry     beta= 0.01
     Davidson diagonalization with overlap

---- Real-time Memory Report at c_bands before calling an iterative solver
          1208 MiB given to the printing process from OS
           709 MiB allocation reported by mallinfo(arena+hblkhd)
        228116 MiB available memory on the node where the printing process lives
------------------
     ethr =  1.06E-12,  avg # of iterations =  1.0

     negative rho (up, down):  5.339E-03 5.339E-03

     total cpu time spent up to now is    16252.4 secs

     total energy              =  -12271.35570918 Ry
     estimated scf accuracy    <       0.00000001 Ry

     total magnetization       =     0.01 Bohr mag/cell
     absolute magnetization    =     0.01 Bohr mag/cell

     iteration #298     ecut=    50.00 Ry     beta= 0.01
     Davidson diagonalization with overlap

---- Real-time Memory Report at c_bands before calling an iterative solver
          1208 MiB given to the printing process from OS
           709 MiB allocation reported by mallinfo(arena+hblkhd)
        228178 MiB available memory on the node where the printing process lives
------------------
     ethr =  1.06E-12,  avg # of iterations =  2.0

     negative rho (up, down):  5.338E-03 5.338E-03

     total cpu time spent up to now is    16310.0 secs

     total energy              =  -12271.35570917 Ry
     estimated scf accuracy    <       0.00000001 Ry

     total magnetization       =     0.01 Bohr mag/cell
     absolute magnetization    =     0.01 Bohr mag/cell

     iteration #299     ecut=    50.00 Ry     beta= 0.01
     Davidson diagonalization with overlap

---- Real-time Memory Report at c_bands before calling an iterative solver
          1208 MiB given to the printing process from OS
           709 MiB allocation reported by mallinfo(arena+hblkhd)
        228238 MiB available memory on the node where the printing process lives
------------------
     ethr =  1.06E-12,  avg # of iterations =  1.0

     negative rho (up, down):  5.338E-03 5.338E-03

     total cpu time spent up to now is    16360.8 secs

     total energy              =  -12271.35570917 Ry
     estimated scf accuracy    <       0.00000001 Ry

     total magnetization       =     0.01 Bohr mag/cell
     absolute magnetization    =     0.01 Bohr mag/cell

     iteration #300     ecut=    50.00 Ry     beta= 0.01
     Davidson diagonalization with overlap

---- Real-time Memory Report at c_bands before calling an iterative solver
          1208 MiB given to the printing process from OS
           709 MiB allocation reported by mallinfo(arena+hblkhd)
        227949 MiB available memory on the node where the printing process lives
------------------
     ethr =  1.06E-12,  avg # of iterations =  1.0

     negative rho (up, down):  5.338E-03 5.338E-03

     total cpu time spent up to now is    16412.8 secs

     total energy              =  -12271.35570916 Ry
     estimated scf accuracy    <       0.00000001 Ry

     total magnetization       =     0.01 Bohr mag/cell
     absolute magnetization    =     0.01 Bohr mag/cell

     iteration #301     ecut=    50.00 Ry     beta= 0.01
     Davidson diagonalization with overlap

---- Real-time Memory Report at c_bands before calling an iterative solver
          1208 MiB given to the printing process from OS
           709 MiB allocation reported by mallinfo(arena+hblkhd)
        228027 MiB available memory on the node where the printing process lives
------------------
     ethr =  1.06E-12,  avg # of iterations =  1.0

     negative rho (up, down):  5.338E-03 5.338E-03

     total cpu time spent up to now is    16464.2 secs

     total energy              =  -12271.35570917 Ry
     estimated scf accuracy    <       0.00000001 Ry

     total magnetization       =     0.00 Bohr mag/cell
     absolute magnetization    =     0.00 Bohr mag/cell

     iteration #302     ecut=    50.00 Ry     beta= 0.01
     Davidson diagonalization with overlap

---- Real-time Memory Report at c_bands before calling an iterative solver
          1208 MiB given to the printing process from OS
           709 MiB allocation reported by mallinfo(arena+hblkhd)
        228168 MiB available memory on the node where the printing process lives
------------------
     ethr =  1.06E-12,  avg # of iterations =  1.0

     negative rho (up, down):  5.338E-03 5.338E-03

     total cpu time spent up to now is    16519.1 secs

     total energy              =  -12271.35570917 Ry
     estimated scf accuracy    <       0.00000001 Ry

     total magnetization       =     0.00 Bohr mag/cell
     absolute magnetization    =     0.00 Bohr mag/cell

     iteration #303     ecut=    50.00 Ry     beta= 0.01
     Davidson diagonalization with overlap

---- Real-time Memory Report at c_bands before calling an iterative solver
          1208 MiB given to the printing process from OS
           709 MiB allocation reported by mallinfo(arena+hblkhd)
        228283 MiB available memory on the node where the printing process lives
------------------
     ethr =  1.06E-12,  avg # of iterations =  1.0

     negative rho (up, down):  5.339E-03 5.339E-03

     total cpu time spent up to now is    16570.4 secs

     total energy              =  -12271.35570917 Ry
     estimated scf accuracy    <       0.00000001 Ry

     total magnetization       =     0.00 Bohr mag/cell
     absolute magnetization    =     0.00 Bohr mag/cell

     iteration #304     ecut=    50.00 Ry     beta= 0.01
     Davidson diagonalization with overlap

---- Real-time Memory Report at c_bands before calling an iterative solver
          1208 MiB given to the printing process from OS
           709 MiB allocation reported by mallinfo(arena+hblkhd)
        228155 MiB available memory on the node where the printing process lives
------------------
     ethr =  1.05E-12,  avg # of iterations =  1.0

     negative rho (up, down):  5.339E-03 5.339E-03

     total cpu time spent up to now is    16623.6 secs

     total energy              =  -12271.35570917 Ry
     estimated scf accuracy    <       0.00000001 Ry

     total magnetization       =     0.00 Bohr mag/cell
     absolute magnetization    =     0.00 Bohr mag/cell

     iteration #305     ecut=    50.00 Ry     beta= 0.01
     Davidson diagonalization with overlap

---- Real-time Memory Report at c_bands before calling an iterative solver
          1208 MiB given to the printing process from OS
           709 MiB allocation reported by mallinfo(arena+hblkhd)
        227712 MiB available memory on the node where the printing process lives
------------------
     ethr =  1.05E-12,  avg # of iterations =  1.0

     negative rho (up, down):  5.339E-03 5.339E-03

     total cpu time spent up to now is    16676.7 secs

     total energy              =  -12271.35570916 Ry
     estimated scf accuracy    <       0.00000001 Ry

     total magnetization       =     0.00 Bohr mag/cell
     absolute magnetization    =     0.00 Bohr mag/cell

     iteration #306     ecut=    50.00 Ry     beta= 0.01
     Davidson diagonalization with overlap

---- Real-time Memory Report at c_bands before calling an iterative solver
          1208 MiB given to the printing process from OS
           709 MiB allocation reported by mallinfo(arena+hblkhd)
        227850 MiB available memory on the node where the printing process lives
------------------
     ethr =  1.05E-12,  avg # of iterations =  2.0

     negative rho (up, down):  5.338E-03 5.338E-03

     total cpu time spent up to now is    16735.5 secs

     total energy              =  -12271.35570916 Ry
     estimated scf accuracy    <       0.00000001 Ry

     total magnetization       =     0.00 Bohr mag/cell
     absolute magnetization    =     0.00 Bohr mag/cell

     iteration #307     ecut=    50.00 Ry     beta= 0.01
     Davidson diagonalization with overlap

---- Real-time Memory Report at c_bands before calling an iterative solver
          1208 MiB given to the printing process from OS
           709 MiB allocation reported by mallinfo(arena+hblkhd)
        228059 MiB available memory on the node where the printing process lives
------------------
     ethr =  1.05E-12,  avg # of iterations =  1.0

     negative rho (up, down):  5.338E-03 5.338E-03

     total cpu time spent up to now is    16785.6 secs

     total energy              =  -12271.35570916 Ry
     estimated scf accuracy    <       0.00000001 Ry

     total magnetization       =     0.00 Bohr mag/cell
     absolute magnetization    =     0.00 Bohr mag/cell

     iteration #308     ecut=    50.00 Ry     beta= 0.01
     Davidson diagonalization with overlap

---- Real-time Memory Report at c_bands before calling an iterative solver
          1208 MiB given to the printing process from OS
           709 MiB allocation reported by mallinfo(arena+hblkhd)
        227862 MiB available memory on the node where the printing process lives
------------------
     ethr =  1.05E-12,  avg # of iterations =  1.0

     negative rho (up, down):  5.338E-03 5.338E-03

     total cpu time spent up to now is    16837.1 secs

     total energy              =  -12271.35570917 Ry
     estimated scf accuracy    <       0.00000001 Ry

     total magnetization       =     0.00 Bohr mag/cell
     absolute magnetization    =     0.00 Bohr mag/cell

     iteration #309     ecut=    50.00 Ry     beta= 0.01
     Davidson diagonalization with overlap

---- Real-time Memory Report at c_bands before calling an iterative solver
          1208 MiB given to the printing process from OS
           709 MiB allocation reported by mallinfo(arena+hblkhd)
        228288 MiB available memory on the node where the printing process lives
------------------
     ethr =  1.05E-12,  avg # of iterations =  1.0

     negative rho (up, down):  5.339E-03 5.339E-03

     total cpu time spent up to now is    16888.9 secs

     total energy              =  -12271.35570917 Ry
     estimated scf accuracy    <       0.00000001 Ry

     total magnetization       =     0.00 Bohr mag/cell
     absolute magnetization    =     0.00 Bohr mag/cell

     iteration #310     ecut=    50.00 Ry     beta= 0.01
     Davidson diagonalization with overlap

---- Real-time Memory Report at c_bands before calling an iterative solver
          1208 MiB given to the printing process from OS
           709 MiB allocation reported by mallinfo(arena+hblkhd)
        228199 MiB available memory on the node where the printing process lives
------------------
     ethr =  1.05E-12,  avg # of iterations =  2.0

     negative rho (up, down):  5.338E-03 5.338E-03

     total cpu time spent up to now is    16947.5 secs

     total energy              =  -12271.35570915 Ry
     estimated scf accuracy    <       0.00000001 Ry

     total magnetization       =     0.00 Bohr mag/cell
     absolute magnetization    =     0.00 Bohr mag/cell

     iteration #311     ecut=    50.00 Ry     beta= 0.01
     Davidson diagonalization with overlap

---- Real-time Memory Report at c_bands before calling an iterative solver
          1208 MiB given to the printing process from OS
           709 MiB allocation reported by mallinfo(arena+hblkhd)
        227879 MiB available memory on the node where the printing process lives
------------------
     ethr =  1.05E-12,  avg # of iterations =  2.0

     negative rho (up, down):  5.338E-03 5.338E-03

     total cpu time spent up to now is    17006.1 secs

     total energy              =  -12271.35570916 Ry
     estimated scf accuracy    <       0.00000001 Ry

     total magnetization       =     0.00 Bohr mag/cell
     absolute magnetization    =     0.00 Bohr mag/cell

     iteration #312     ecut=    50.00 Ry     beta= 0.01
     Davidson diagonalization with overlap

---- Real-time Memory Report at c_bands before calling an iterative solver
          1208 MiB given to the printing process from OS
           709 MiB allocation reported by mallinfo(arena+hblkhd)
        228255 MiB available memory on the node where the printing process lives
------------------
     ethr =  1.05E-12,  avg # of iterations =  1.0

     negative rho (up, down):  5.337E-03 5.337E-03

     total cpu time spent up to now is    17057.2 secs

     total energy              =  -12271.35570915 Ry
     estimated scf accuracy    <       0.00000001 Ry

     total magnetization       =     0.00 Bohr mag/cell
     absolute magnetization    =     0.00 Bohr mag/cell

     iteration #313     ecut=    50.00 Ry     beta= 0.01
     Davidson diagonalization with overlap

---- Real-time Memory Report at c_bands before calling an iterative solver
          1208 MiB given to the printing process from OS
           709 MiB allocation reported by mallinfo(arena+hblkhd)
        228118 MiB available memory on the node where the printing process lives
------------------
     ethr =  1.05E-12,  avg # of iterations =  1.0

     negative rho (up, down):  5.337E-03 5.337E-03

     total cpu time spent up to now is    17107.4 secs

     total energy              =  -12271.35570914 Ry
     estimated scf accuracy    <       0.00000001 Ry

     total magnetization       =     0.00 Bohr mag/cell
     absolute magnetization    =     0.00 Bohr mag/cell

     iteration #314     ecut=    50.00 Ry     beta= 0.01
     Davidson diagonalization with overlap

---- Real-time Memory Report at c_bands before calling an iterative solver
          1208 MiB given to the printing process from OS
           709 MiB allocation reported by mallinfo(arena+hblkhd)
        228146 MiB available memory on the node where the printing process lives
------------------
     ethr =  1.05E-12,  avg # of iterations =  1.0

     negative rho (up, down):  5.337E-03 5.338E-03

     total cpu time spent up to now is    17159.5 secs

     total energy              =  -12271.35570915 Ry
     estimated scf accuracy    <       0.00000001 Ry

     total magnetization       =     0.00 Bohr mag/cell
     absolute magnetization    =     0.00 Bohr mag/cell

     iteration #315     ecut=    50.00 Ry     beta= 0.01
     Davidson diagonalization with overlap

---- Real-time Memory Report at c_bands before calling an iterative solver
          1208 MiB given to the printing process from OS
           709 MiB allocation reported by mallinfo(arena+hblkhd)
        228068 MiB available memory on the node where the printing process lives
------------------
     ethr =  1.05E-12,  avg # of iterations =  2.0

     negative rho (up, down):  5.336E-03 5.336E-03

     total cpu time spent up to now is    17218.1 secs

     total energy              =  -12271.35570913 Ry
     estimated scf accuracy    <       0.00000001 Ry

     total magnetization       =     0.00 Bohr mag/cell
     absolute magnetization    =     0.00 Bohr mag/cell

     iteration #316     ecut=    50.00 Ry     beta= 0.01
     Davidson diagonalization with overlap

---- Real-time Memory Report at c_bands before calling an iterative solver
          1208 MiB given to the printing process from OS
           709 MiB allocation reported by mallinfo(arena+hblkhd)
        228223 MiB available memory on the node where the printing process lives
------------------
     ethr =  1.05E-12,  avg # of iterations =  2.0

     negative rho (up, down):  5.338E-03 5.338E-03

     total cpu time spent up to now is    17279.4 secs

     total energy              =  -12271.35570915 Ry
     estimated scf accuracy    <       0.00000001 Ry

     total magnetization       =    -0.00 Bohr mag/cell
     absolute magnetization    =     0.00 Bohr mag/cell

     iteration #317     ecut=    50.00 Ry     beta= 0.01
     Davidson diagonalization with overlap

---- Real-time Memory Report at c_bands before calling an iterative solver
          1208 MiB given to the printing process from OS
           709 MiB allocation reported by mallinfo(arena+hblkhd)
        228175 MiB available memory on the node where the printing process lives
------------------
     ethr =  1.05E-12,  avg # of iterations =  1.0

     negative rho (up, down):  5.337E-03 5.337E-03

     total cpu time spent up to now is    17330.9 secs

     total energy              =  -12271.35570914 Ry
     estimated scf accuracy    <       0.00000001 Ry

     total magnetization       =     0.00 Bohr mag/cell
     absolute magnetization    =     0.00 Bohr mag/cell

     iteration #318     ecut=    50.00 Ry     beta= 0.01
     Davidson diagonalization with overlap

---- Real-time Memory Report at c_bands before calling an iterative solver
          1208 MiB given to the printing process from OS
           709 MiB allocation reported by mallinfo(arena+hblkhd)
        228166 MiB available memory on the node where the printing process lives
------------------
     ethr =  1.05E-12,  avg # of iterations =  1.0

     negative rho (up, down):  5.337E-03 5.337E-03

     total cpu time spent up to now is    17382.2 secs

     total energy              =  -12271.35570915 Ry
     estimated scf accuracy    <       0.00000001 Ry

     total magnetization       =    -0.00 Bohr mag/cell
     absolute magnetization    =     0.00 Bohr mag/cell

     iteration #319     ecut=    50.00 Ry     beta= 0.01
     Davidson diagonalization with overlap

---- Real-time Memory Report at c_bands before calling an iterative solver
          1208 MiB given to the printing process from OS
           709 MiB allocation reported by mallinfo(arena+hblkhd)
        228177 MiB available memory on the node where the printing process lives
------------------
     ethr =  1.05E-12,  avg # of iterations =  1.0

     negative rho (up, down):  5.336E-03 5.336E-03

     total cpu time spent up to now is    17434.5 secs

     total energy              =  -12271.35570914 Ry
     estimated scf accuracy    <       0.00000001 Ry

     total magnetization       =     0.00 Bohr mag/cell
     absolute magnetization    =     0.00 Bohr mag/cell

     iteration #320     ecut=    50.00 Ry     beta= 0.01
     Davidson diagonalization with overlap

---- Real-time Memory Report at c_bands before calling an iterative solver
          1208 MiB given to the printing process from OS
           709 MiB allocation reported by mallinfo(arena+hblkhd)
        227935 MiB available memory on the node where the printing process lives
------------------
     ethr =  1.05E-12,  avg # of iterations =  2.0

     negative rho (up, down):  5.336E-03 5.336E-03

     total cpu time spent up to now is    17497.3 secs

     total energy              =  -12271.35570913 Ry
     estimated scf accuracy    <       0.00000001 Ry

     total magnetization       =    -0.00 Bohr mag/cell
     absolute magnetization    =     0.00 Bohr mag/cell

     iteration #321     ecut=    50.00 Ry     beta= 0.01
     Davidson diagonalization with overlap

---- Real-time Memory Report at c_bands before calling an iterative solver
          1208 MiB given to the printing process from OS
           709 MiB allocation reported by mallinfo(arena+hblkhd)
        228084 MiB available memory on the node where the printing process lives
------------------
     ethr =  1.05E-12,  avg # of iterations =  2.0

     negative rho (up, down):  5.335E-03 5.336E-03

     total cpu time spent up to now is    17563.5 secs

     total energy              =  -12271.35570914 Ry
     estimated scf accuracy    <       0.00000001 Ry

     total magnetization       =     0.00 Bohr mag/cell
     absolute magnetization    =     0.00 Bohr mag/cell

     iteration #322     ecut=    50.00 Ry     beta= 0.01
     Davidson diagonalization with overlap

---- Real-time Memory Report at c_bands before calling an iterative solver
          1208 MiB given to the printing process from OS
           709 MiB allocation reported by mallinfo(arena+hblkhd)
        227844 MiB available memory on the node where the printing process lives
------------------
     ethr =  1.05E-12,  avg # of iterations =  1.0

     negative rho (up, down):  5.336E-03 5.336E-03

     total cpu time spent up to now is    17617.4 secs

     total energy              =  -12271.35570914 Ry
     estimated scf accuracy    <       0.00000001 Ry

     total magnetization       =     0.00 Bohr mag/cell
     absolute magnetization    =     0.00 Bohr mag/cell

     iteration #323     ecut=    50.00 Ry     beta= 0.01
     Davidson diagonalization with overlap

---- Real-time Memory Report at c_bands before calling an iterative solver
          1210 MiB given to the printing process from OS
           709 MiB allocation reported by mallinfo(arena+hblkhd)
        228053 MiB available memory on the node where the printing process lives
------------------
     ethr =  1.05E-12,  avg # of iterations =  1.0

     negative rho (up, down):  5.337E-03 5.337E-03

     total cpu time spent up to now is    17668.2 secs

     total energy              =  -12271.35570916 Ry
     estimated scf accuracy    <       0.00000001 Ry

     total magnetization       =     0.00 Bohr mag/cell
     absolute magnetization    =     0.00 Bohr mag/cell

     iteration #324     ecut=    50.00 Ry     beta= 0.01
     Davidson diagonalization with overlap

---- Real-time Memory Report at c_bands before calling an iterative solver
          1210 MiB given to the printing process from OS
           709 MiB allocation reported by mallinfo(arena+hblkhd)
        228157 MiB available memory on the node where the printing process lives
------------------
     ethr =  1.05E-12,  avg # of iterations =  1.0

     negative rho (up, down):  5.338E-03 5.338E-03

     total cpu time spent up to now is    17719.3 secs

     total energy              =  -12271.35570915 Ry
     estimated scf accuracy    <       0.00000001 Ry

     total magnetization       =     0.00 Bohr mag/cell
     absolute magnetization    =     0.00 Bohr mag/cell

     iteration #325     ecut=    50.00 Ry     beta= 0.01
     Davidson diagonalization with overlap

---- Real-time Memory Report at c_bands before calling an iterative solver
          1210 MiB given to the printing process from OS
           709 MiB allocation reported by mallinfo(arena+hblkhd)
        228141 MiB available memory on the node where the printing process lives
------------------
     ethr =  1.05E-12,  avg # of iterations =  2.0

     negative rho (up, down):  5.337E-03 5.337E-03

     total cpu time spent up to now is    17778.2 secs

     total energy              =  -12271.35570915 Ry
     estimated scf accuracy    <       0.00000001 Ry

     total magnetization       =     0.00 Bohr mag/cell
     absolute magnetization    =     0.00 Bohr mag/cell

     iteration #326     ecut=    50.00 Ry     beta= 0.01
     Davidson diagonalization with overlap

---- Real-time Memory Report at c_bands before calling an iterative solver
          1210 MiB given to the printing process from OS
           709 MiB allocation reported by mallinfo(arena+hblkhd)
        228367 MiB available memory on the node where the printing process lives
------------------
     ethr =  1.05E-12,  avg # of iterations =  2.0

     negative rho (up, down):  5.337E-03 5.337E-03

     total cpu time spent up to now is    17839.6 secs

     total energy              =  -12271.35570915 Ry
     estimated scf accuracy    <       0.00000001 Ry

     total magnetization       =     0.01 Bohr mag/cell
     absolute magnetization    =     0.01 Bohr mag/cell

     iteration #327     ecut=    50.00 Ry     beta= 0.01
     Davidson diagonalization with overlap

---- Real-time Memory Report at c_bands before calling an iterative solver
          1210 MiB given to the printing process from OS
           709 MiB allocation reported by mallinfo(arena+hblkhd)
        228011 MiB available memory on the node where the printing process lives
------------------
     ethr =  1.05E-12,  avg # of iterations =  2.0

     negative rho (up, down):  5.337E-03 5.337E-03

     total cpu time spent up to now is    17898.6 secs

     total energy              =  -12271.35570916 Ry
     estimated scf accuracy    <       0.00000001 Ry

     total magnetization       =     0.00 Bohr mag/cell
     absolute magnetization    =     0.00 Bohr mag/cell

     iteration #328     ecut=    50.00 Ry     beta= 0.01
     Davidson diagonalization with overlap

---- Real-time Memory Report at c_bands before calling an iterative solver
          1210 MiB given to the printing process from OS
           709 MiB allocation reported by mallinfo(arena+hblkhd)
        228028 MiB available memory on the node where the printing process lives
------------------
     ethr =  1.00E-12,  avg # of iterations =  1.0

     negative rho (up, down):  5.337E-03 5.337E-03

     total cpu time spent up to now is    17949.2 secs

     total energy              =  -12271.35570916 Ry
     estimated scf accuracy    <       0.00000001 Ry

     total magnetization       =     0.00 Bohr mag/cell
     absolute magnetization    =     0.00 Bohr mag/cell

     iteration #329     ecut=    50.00 Ry     beta= 0.01
     Davidson diagonalization with overlap

---- Real-time Memory Report at c_bands before calling an iterative solver
          1210 MiB given to the printing process from OS
           709 MiB allocation reported by mallinfo(arena+hblkhd)
        228093 MiB available memory on the node where the printing process lives
------------------
     ethr =  9.68E-13,  avg # of iterations =  1.0

     negative rho (up, down):  5.338E-03 5.338E-03

     total cpu time spent up to now is    18000.9 secs

     total energy              =  -12271.35570916 Ry
     estimated scf accuracy    <       0.00000001 Ry

     total magnetization       =     0.00 Bohr mag/cell
     absolute magnetization    =     0.00 Bohr mag/cell

     iteration #330     ecut=    50.00 Ry     beta= 0.01
     Davidson diagonalization with overlap

---- Real-time Memory Report at c_bands before calling an iterative solver
          1210 MiB given to the printing process from OS
           709 MiB allocation reported by mallinfo(arena+hblkhd)
        228112 MiB available memory on the node where the printing process lives
------------------
     ethr =  9.67E-13,  avg # of iterations =  1.0

     negative rho (up, down):  5.337E-03 5.337E-03

     total cpu time spent up to now is    18052.0 secs

     total energy              =  -12271.35570915 Ry
     estimated scf accuracy    <       0.00000001 Ry

     total magnetization       =     0.00 Bohr mag/cell
     absolute magnetization    =     0.00 Bohr mag/cell

     iteration #331     ecut=    50.00 Ry     beta= 0.01
     Davidson diagonalization with overlap

---- Real-time Memory Report at c_bands before calling an iterative solver
          1210 MiB given to the printing process from OS
           709 MiB allocation reported by mallinfo(arena+hblkhd)
        228260 MiB available memory on the node where the printing process lives
------------------
     ethr =  9.66E-13,  avg # of iterations =  1.1

     negative rho (up, down):  5.338E-03 5.338E-03

     total cpu time spent up to now is    18105.7 secs

     total energy              =  -12271.35570916 Ry
     estimated scf accuracy    <       0.00000001 Ry

     total magnetization       =     0.00 Bohr mag/cell
     absolute magnetization    =     0.00 Bohr mag/cell

     iteration #332     ecut=    50.00 Ry     beta= 0.01
     Davidson diagonalization with overlap

---- Real-time Memory Report at c_bands before calling an iterative solver
          1210 MiB given to the printing process from OS
           709 MiB allocation reported by mallinfo(arena+hblkhd)
        227925 MiB available memory on the node where the printing process lives
------------------
     ethr =  9.66E-13,  avg # of iterations =  1.0

     negative rho (up, down):  5.337E-03 5.337E-03

     total cpu time spent up to now is    18156.8 secs

     total energy              =  -12271.35570916 Ry
     estimated scf accuracy    <       0.00000001 Ry

     total magnetization       =     0.00 Bohr mag/cell
     absolute magnetization    =     0.00 Bohr mag/cell

     iteration #333     ecut=    50.00 Ry     beta= 0.01
     Davidson diagonalization with overlap

---- Real-time Memory Report at c_bands before calling an iterative solver
          1210 MiB given to the printing process from OS
           709 MiB allocation reported by mallinfo(arena+hblkhd)
        227952 MiB available memory on the node where the printing process lives
------------------
     ethr =  9.66E-13,  avg # of iterations =  1.0

     negative rho (up, down):  5.338E-03 5.338E-03

     total cpu time spent up to now is    18207.7 secs

     total energy              =  -12271.35570916 Ry
     estimated scf accuracy    <       0.00000001 Ry

     total magnetization       =     0.00 Bohr mag/cell
     absolute magnetization    =     0.00 Bohr mag/cell

     iteration #334     ecut=    50.00 Ry     beta= 0.01
     Davidson diagonalization with overlap

---- Real-time Memory Report at c_bands before calling an iterative solver
          1210 MiB given to the printing process from OS
           709 MiB allocation reported by mallinfo(arena+hblkhd)
        227866 MiB available memory on the node where the printing process lives
------------------
     ethr =  9.66E-13,  avg # of iterations =  2.0

     negative rho (up, down):  5.337E-03 5.337E-03

     total cpu time spent up to now is    18266.0 secs

     total energy              =  -12271.35570916 Ry
     estimated scf accuracy    <       0.00000001 Ry

     total magnetization       =     0.00 Bohr mag/cell
     absolute magnetization    =     0.00 Bohr mag/cell

     iteration #335     ecut=    50.00 Ry     beta= 0.01
     Davidson diagonalization with overlap

---- Real-time Memory Report at c_bands before calling an iterative solver
          1210 MiB given to the printing process from OS
           709 MiB allocation reported by mallinfo(arena+hblkhd)
        228272 MiB available memory on the node where the printing process lives
------------------
     ethr =  9.66E-13,  avg # of iterations =  1.0

     negative rho (up, down):  5.337E-03 5.337E-03

     total cpu time spent up to now is    18317.0 secs

     total energy              =  -12271.35570916 Ry
     estimated scf accuracy    <       0.00000001 Ry

     total magnetization       =     0.00 Bohr mag/cell
     absolute magnetization    =     0.00 Bohr mag/cell

     iteration #336     ecut=    50.00 Ry     beta= 0.01
     Davidson diagonalization with overlap

---- Real-time Memory Report at c_bands before calling an iterative solver
          1210 MiB given to the printing process from OS
           709 MiB allocation reported by mallinfo(arena+hblkhd)
        228214 MiB available memory on the node where the printing process lives
------------------
     ethr =  9.66E-13,  avg # of iterations =  1.0

     negative rho (up, down):  5.337E-03 5.337E-03

     total cpu time spent up to now is    18368.9 secs

     total energy              =  -12271.35570916 Ry
     estimated scf accuracy    <       0.00000001 Ry

     total magnetization       =     0.00 Bohr mag/cell
     absolute magnetization    =     0.00 Bohr mag/cell

     iteration #337     ecut=    50.00 Ry     beta= 0.01
     Davidson diagonalization with overlap

---- Real-time Memory Report at c_bands before calling an iterative solver
          1210 MiB given to the printing process from OS
           709 MiB allocation reported by mallinfo(arena+hblkhd)
        228027 MiB available memory on the node where the printing process lives
------------------
     ethr =  9.66E-13,  avg # of iterations =  1.0

     negative rho (up, down):  5.337E-03 5.337E-03

     total cpu time spent up to now is    18422.5 secs

     total energy              =  -12271.35570915 Ry
     estimated scf accuracy    <       0.00000001 Ry

     total magnetization       =     0.00 Bohr mag/cell
     absolute magnetization    =     0.00 Bohr mag/cell

     iteration #338     ecut=    50.00 Ry     beta= 0.01
     Davidson diagonalization with overlap

---- Real-time Memory Report at c_bands before calling an iterative solver
          1210 MiB given to the printing process from OS
           709 MiB allocation reported by mallinfo(arena+hblkhd)
        227925 MiB available memory on the node where the printing process lives
------------------
     ethr =  9.66E-13,  avg # of iterations =  1.0

     negative rho (up, down):  5.337E-03 5.337E-03

     total cpu time spent up to now is    18477.6 secs

     total energy              =  -12271.35570915 Ry
     estimated scf accuracy    <       0.00000001 Ry

     total magnetization       =     0.00 Bohr mag/cell
     absolute magnetization    =     0.00 Bohr mag/cell

     iteration #339     ecut=    50.00 Ry     beta= 0.01
     Davidson diagonalization with overlap

---- Real-time Memory Report at c_bands before calling an iterative solver
          1210 MiB given to the printing process from OS
           709 MiB allocation reported by mallinfo(arena+hblkhd)
        227751 MiB available memory on the node where the printing process lives
------------------
     ethr =  9.66E-13,  avg # of iterations =  1.0

     negative rho (up, down):  5.337E-03 5.337E-03

     total cpu time spent up to now is    18531.2 secs

     total energy              =  -12271.35570916 Ry
     estimated scf accuracy    <       0.00000001 Ry

     total magnetization       =     0.00 Bohr mag/cell
     absolute magnetization    =     0.00 Bohr mag/cell

     iteration #340     ecut=    50.00 Ry     beta= 0.01
     Davidson diagonalization with overlap

---- Real-time Memory Report at c_bands before calling an iterative solver
          1210 MiB given to the printing process from OS
           709 MiB allocation reported by mallinfo(arena+hblkhd)
        228081 MiB available memory on the node where the printing process lives
------------------
     ethr =  9.66E-13,  avg # of iterations =  1.0

     negative rho (up, down):  5.338E-03 5.338E-03

     total cpu time spent up to now is    18582.2 secs

     total energy              =  -12271.35570916 Ry
     estimated scf accuracy    <       0.00000001 Ry

     total magnetization       =     0.00 Bohr mag/cell
     absolute magnetization    =     0.00 Bohr mag/cell

     iteration #341     ecut=    50.00 Ry     beta= 0.01
     Davidson diagonalization with overlap

---- Real-time Memory Report at c_bands before calling an iterative solver
          1210 MiB given to the printing process from OS
           709 MiB allocation reported by mallinfo(arena+hblkhd)
        228133 MiB available memory on the node where the printing process lives
------------------
     ethr =  9.66E-13,  avg # of iterations =  1.0

     negative rho (up, down):  5.337E-03 5.337E-03

     total cpu time spent up to now is    18633.5 secs

     total energy              =  -12271.35570916 Ry
     estimated scf accuracy    <       0.00000001 Ry

     total magnetization       =     0.00 Bohr mag/cell
     absolute magnetization    =     0.00 Bohr mag/cell

     iteration #342     ecut=    50.00 Ry     beta= 0.01
     Davidson diagonalization with overlap

---- Real-time Memory Report at c_bands before calling an iterative solver
          1210 MiB given to the printing process from OS
           709 MiB allocation reported by mallinfo(arena+hblkhd)
        228118 MiB available memory on the node where the printing process lives
------------------
     ethr =  9.66E-13,  avg # of iterations =  1.0

     negative rho (up, down):  5.337E-03 5.338E-03

     total cpu time spent up to now is    18685.0 secs

     total energy              =  -12271.35570916 Ry
     estimated scf accuracy    <       0.00000001 Ry

     total magnetization       =     0.00 Bohr mag/cell
     absolute magnetization    =     0.00 Bohr mag/cell

     iteration #343     ecut=    50.00 Ry     beta= 0.01
     Davidson diagonalization with overlap

---- Real-time Memory Report at c_bands before calling an iterative solver
          1210 MiB given to the printing process from OS
           709 MiB allocation reported by mallinfo(arena+hblkhd)
        228156 MiB available memory on the node where the printing process lives
------------------
     ethr =  9.66E-13,  avg # of iterations =  1.0

     negative rho (up, down):  5.337E-03 5.337E-03

     total cpu time spent up to now is    18734.9 secs

     total energy              =  -12271.35570915 Ry
     estimated scf accuracy    <       0.00000001 Ry

     total magnetization       =     0.00 Bohr mag/cell
     absolute magnetization    =     0.00 Bohr mag/cell

     iteration #344     ecut=    50.00 Ry     beta= 0.01
     Davidson diagonalization with overlap

---- Real-time Memory Report at c_bands before calling an iterative solver
          1210 MiB given to the printing process from OS
           709 MiB allocation reported by mallinfo(arena+hblkhd)
        228027 MiB available memory on the node where the printing process lives
------------------
     ethr =  9.66E-13,  avg # of iterations =  1.0

     negative rho (up, down):  5.338E-03 5.338E-03

     total cpu time spent up to now is    18786.2 secs

     total energy              =  -12271.35570916 Ry
     estimated scf accuracy    <       0.00000001 Ry

     total magnetization       =     0.00 Bohr mag/cell
     absolute magnetization    =     0.00 Bohr mag/cell

     iteration #345     ecut=    50.00 Ry     beta= 0.01
     Davidson diagonalization with overlap

---- Real-time Memory Report at c_bands before calling an iterative solver
          1210 MiB given to the printing process from OS
           709 MiB allocation reported by mallinfo(arena+hblkhd)
        227924 MiB available memory on the node where the printing process lives
------------------
     ethr =  9.66E-13,  avg # of iterations =  1.0

     negative rho (up, down):  5.338E-03 5.338E-03

     total cpu time spent up to now is    18837.9 secs

     total energy              =  -12271.35570916 Ry
     estimated scf accuracy    <       0.00000001 Ry

     total magnetization       =     0.00 Bohr mag/cell
     absolute magnetization    =     0.00 Bohr mag/cell

     iteration #346     ecut=    50.00 Ry     beta= 0.01
     Davidson diagonalization with overlap

---- Real-time Memory Report at c_bands before calling an iterative solver
          1210 MiB given to the printing process from OS
           709 MiB allocation reported by mallinfo(arena+hblkhd)
        228217 MiB available memory on the node where the printing process lives
------------------
     ethr =  9.66E-13,  avg # of iterations =  1.0

     negative rho (up, down):  5.337E-03 5.338E-03

     total cpu time spent up to now is    18888.7 secs

     total energy              =  -12271.35570916 Ry
     estimated scf accuracy    <       0.00000001 Ry

     total magnetization       =     0.00 Bohr mag/cell
     absolute magnetization    =     0.00 Bohr mag/cell

     iteration #347     ecut=    50.00 Ry     beta= 0.01
     Davidson diagonalization with overlap

---- Real-time Memory Report at c_bands before calling an iterative solver
          1210 MiB given to the printing process from OS
           709 MiB allocation reported by mallinfo(arena+hblkhd)
        228095 MiB available memory on the node where the printing process lives
------------------
     ethr =  9.66E-13,  avg # of iterations =  1.5

     negative rho (up, down):  5.336E-03 5.336E-03

     total cpu time spent up to now is    18944.1 secs

     total energy              =  -12271.35570914 Ry
     estimated scf accuracy    <       0.00000001 Ry

     total magnetization       =     0.00 Bohr mag/cell
     absolute magnetization    =     0.00 Bohr mag/cell

     iteration #348     ecut=    50.00 Ry     beta= 0.01
     Davidson diagonalization with overlap

---- Real-time Memory Report at c_bands before calling an iterative solver
          1210 MiB given to the printing process from OS
           709 MiB allocation reported by mallinfo(arena+hblkhd)
        228219 MiB available memory on the node where the printing process lives
------------------
     ethr =  9.66E-13,  avg # of iterations =  1.0

     negative rho (up, down):  5.336E-03 5.336E-03

     total cpu time spent up to now is    18996.0 secs

     total energy              =  -12271.35570914 Ry
     estimated scf accuracy    <       0.00000001 Ry

     total magnetization       =     0.00 Bohr mag/cell
     absolute magnetization    =     0.00 Bohr mag/cell

     iteration #349     ecut=    50.00 Ry     beta= 0.01
     Davidson diagonalization with overlap

---- Real-time Memory Report at c_bands before calling an iterative solver
          1210 MiB given to the printing process from OS
           709 MiB allocation reported by mallinfo(arena+hblkhd)
        228221 MiB available memory on the node where the printing process lives
------------------
     ethr =  9.66E-13,  avg # of iterations =  1.0

     negative rho (up, down):  5.336E-03 5.336E-03

     total cpu time spent up to now is    19048.1 secs

     total energy              =  -12271.35570914 Ry
     estimated scf accuracy    <       0.00000001 Ry

     total magnetization       =     0.00 Bohr mag/cell
     absolute magnetization    =     0.00 Bohr mag/cell

     iteration #350     ecut=    50.00 Ry     beta= 0.01
     Davidson diagonalization with overlap

---- Real-time Memory Report at c_bands before calling an iterative solver
          1210 MiB given to the printing process from OS
           709 MiB allocation reported by mallinfo(arena+hblkhd)
        228205 MiB available memory on the node where the printing process lives
------------------
     ethr =  9.66E-13,  avg # of iterations =  1.0

     negative rho (up, down):  5.337E-03 5.337E-03

     total cpu time spent up to now is    19099.4 secs

     total energy              =  -12271.35570916 Ry
     estimated scf accuracy    <       0.00000001 Ry

     total magnetization       =     0.00 Bohr mag/cell
     absolute magnetization    =     0.00 Bohr mag/cell

     iteration #351     ecut=    50.00 Ry     beta= 0.01
     Davidson diagonalization with overlap

---- Real-time Memory Report at c_bands before calling an iterative solver
          1210 MiB given to the printing process from OS
           709 MiB allocation reported by mallinfo(arena+hblkhd)
        228117 MiB available memory on the node where the printing process lives
------------------
     ethr =  9.66E-13,  avg # of iterations =  2.0

     negative rho (up, down):  5.337E-03 5.337E-03

     total cpu time spent up to now is    19157.5 secs

     total energy              =  -12271.35570915 Ry
     estimated scf accuracy    <       0.00000001 Ry

     total magnetization       =     0.00 Bohr mag/cell
     absolute magnetization    =     0.01 Bohr mag/cell

     iteration #352     ecut=    50.00 Ry     beta= 0.01
     Davidson diagonalization with overlap

---- Real-time Memory Report at c_bands before calling an iterative solver
          1210 MiB given to the printing process from OS
           709 MiB allocation reported by mallinfo(arena+hblkhd)
        228204 MiB available memory on the node where the printing process lives
------------------
     ethr =  9.66E-13,  avg # of iterations =  1.0

     negative rho (up, down):  5.337E-03 5.337E-03

     total cpu time spent up to now is    19208.3 secs

     total energy              =  -12271.35570915 Ry
     estimated scf accuracy    <       0.00000001 Ry

     total magnetization       =     0.00 Bohr mag/cell
     absolute magnetization    =     0.00 Bohr mag/cell

     iteration #353     ecut=    50.00 Ry     beta= 0.01
     Davidson diagonalization with overlap

---- Real-time Memory Report at c_bands before calling an iterative solver
          1210 MiB given to the printing process from OS
           709 MiB allocation reported by mallinfo(arena+hblkhd)
        228181 MiB available memory on the node where the printing process lives
------------------
     ethr =  9.66E-13,  avg # of iterations =  1.0

     negative rho (up, down):  5.337E-03 5.337E-03

     total cpu time spent up to now is    19259.8 secs

     total energy              =  -12271.35570915 Ry
     estimated scf accuracy    <       0.00000001 Ry

     total magnetization       =     0.00 Bohr mag/cell
     absolute magnetization    =     0.00 Bohr mag/cell

     iteration #354     ecut=    50.00 Ry     beta= 0.01
     Davidson diagonalization with overlap

---- Real-time Memory Report at c_bands before calling an iterative solver
          1210 MiB given to the printing process from OS
           709 MiB allocation reported by mallinfo(arena+hblkhd)
        227983 MiB available memory on the node where the printing process lives
------------------
     ethr =  9.66E-13,  avg # of iterations =  1.0

     negative rho (up, down):  5.337E-03 5.337E-03

     total cpu time spent up to now is    19315.9 secs

     total energy              =  -12271.35570915 Ry
     estimated scf accuracy    <       0.00000001 Ry

     total magnetization       =     0.00 Bohr mag/cell
     absolute magnetization    =     0.00 Bohr mag/cell

     iteration #355     ecut=    50.00 Ry     beta= 0.01
     Davidson diagonalization with overlap

---- Real-time Memory Report at c_bands before calling an iterative solver
          1210 MiB given to the printing process from OS
           709 MiB allocation reported by mallinfo(arena+hblkhd)
        228258 MiB available memory on the node where the printing process lives
------------------
     ethr =  9.66E-13,  avg # of iterations =  1.0

     negative rho (up, down):  5.337E-03 5.337E-03

     total cpu time spent up to now is    19370.5 secs

     total energy              =  -12271.35570915 Ry
     estimated scf accuracy    <       0.00000001 Ry

     total magnetization       =     0.00 Bohr mag/cell
     absolute magnetization    =     0.00 Bohr mag/cell

     iteration #356     ecut=    50.00 Ry     beta= 0.01
     Davidson diagonalization with overlap

---- Real-time Memory Report at c_bands before calling an iterative solver
          1210 MiB given to the printing process from OS
           709 MiB allocation reported by mallinfo(arena+hblkhd)
        227998 MiB available memory on the node where the printing process lives
------------------
     ethr =  9.66E-13,  avg # of iterations =  2.0

     negative rho (up, down):  5.337E-03 5.337E-03

     total cpu time spent up to now is    19432.0 secs

     total energy              =  -12271.35570916 Ry
     estimated scf accuracy    <       0.00000001 Ry

     total magnetization       =     0.00 Bohr mag/cell
     absolute magnetization    =     0.00 Bohr mag/cell

     iteration #357     ecut=    50.00 Ry     beta= 0.01
     Davidson diagonalization with overlap

---- Real-time Memory Report at c_bands before calling an iterative solver
          1210 MiB given to the printing process from OS
           709 MiB allocation reported by mallinfo(arena+hblkhd)
        228098 MiB available memory on the node where the printing process lives
------------------
     ethr =  9.66E-13,  avg # of iterations =  1.0

     negative rho (up, down):  5.337E-03 5.337E-03

     total cpu time spent up to now is    19482.4 secs

     total energy              =  -12271.35570915 Ry
     estimated scf accuracy    <       0.00000001 Ry

     total magnetization       =     0.00 Bohr mag/cell
     absolute magnetization    =     0.00 Bohr mag/cell

     iteration #358     ecut=    50.00 Ry     beta= 0.01
     Davidson diagonalization with overlap

---- Real-time Memory Report at c_bands before calling an iterative solver
          1210 MiB given to the printing process from OS
           709 MiB allocation reported by mallinfo(arena+hblkhd)
        228116 MiB available memory on the node where the printing process lives
------------------
     ethr =  9.66E-13,  avg # of iterations =  1.0

     negative rho (up, down):  5.337E-03 5.337E-03

     total cpu time spent up to now is    19533.6 secs

     total energy              =  -12271.35570915 Ry
     estimated scf accuracy    <       0.00000001 Ry

     total magnetization       =     0.00 Bohr mag/cell
     absolute magnetization    =     0.00 Bohr mag/cell

     iteration #359     ecut=    50.00 Ry     beta= 0.01
     Davidson diagonalization with overlap

---- Real-time Memory Report at c_bands before calling an iterative solver
          1210 MiB given to the printing process from OS
           709 MiB allocation reported by mallinfo(arena+hblkhd)
        227754 MiB available memory on the node where the printing process lives
------------------
     ethr =  9.66E-13,  avg # of iterations =  1.0

     negative rho (up, down):  5.337E-03 5.337E-03

     total cpu time spent up to now is    19585.2 secs

     total energy              =  -12271.35570916 Ry
     estimated scf accuracy    <       0.00000001 Ry

     total magnetization       =     0.00 Bohr mag/cell
     absolute magnetization    =     0.00 Bohr mag/cell

     iteration #360     ecut=    50.00 Ry     beta= 0.01
     Davidson diagonalization with overlap

---- Real-time Memory Report at c_bands before calling an iterative solver
          1210 MiB given to the printing process from OS
           709 MiB allocation reported by mallinfo(arena+hblkhd)
        228141 MiB available memory on the node where the printing process lives
------------------
     ethr =  9.66E-13,  avg # of iterations =  1.0

     negative rho (up, down):  5.337E-03 5.337E-03

     total cpu time spent up to now is    19635.1 secs

     total energy              =  -12271.35570915 Ry
     estimated scf accuracy    <       0.00000001 Ry

     total magnetization       =     0.00 Bohr mag/cell
     absolute magnetization    =     0.00 Bohr mag/cell

     iteration #361     ecut=    50.00 Ry     beta= 0.01
     Davidson diagonalization with overlap

---- Real-time Memory Report at c_bands before calling an iterative solver
          1210 MiB given to the printing process from OS
           709 MiB allocation reported by mallinfo(arena+hblkhd)
        228207 MiB available memory on the node where the printing process lives
------------------
     ethr =  9.66E-13,  avg # of iterations =  1.0

     negative rho (up, down):  5.337E-03 5.337E-03

     total cpu time spent up to now is    19686.3 secs

     total energy              =  -12271.35570916 Ry
     estimated scf accuracy    <       0.00000001 Ry

     total magnetization       =     0.00 Bohr mag/cell
     absolute magnetization    =     0.00 Bohr mag/cell

     iteration #362     ecut=    50.00 Ry     beta= 0.01
     Davidson diagonalization with overlap

---- Real-time Memory Report at c_bands before calling an iterative solver
          1210 MiB given to the printing process from OS
           709 MiB allocation reported by mallinfo(arena+hblkhd)
        228202 MiB available memory on the node where the printing process lives
------------------
     ethr =  9.66E-13,  avg # of iterations =  1.8

     negative rho (up, down):  5.337E-03 5.337E-03

     total cpu time spent up to now is    19743.2 secs

     total energy              =  -12271.35570915 Ry
     estimated scf accuracy    <       0.00000001 Ry

     total magnetization       =     0.00 Bohr mag/cell
     absolute magnetization    =     0.00 Bohr mag/cell

     iteration #363     ecut=    50.00 Ry     beta= 0.01
     Davidson diagonalization with overlap

---- Real-time Memory Report at c_bands before calling an iterative solver
          1210 MiB given to the printing process from OS
           709 MiB allocation reported by mallinfo(arena+hblkhd)
        228116 MiB available memory on the node where the printing process lives
------------------
     ethr =  9.66E-13,  avg # of iterations =  1.0

     negative rho (up, down):  5.338E-03 5.338E-03

     total cpu time spent up to now is    19795.1 secs

     total energy              =  -12271.35570917 Ry
     estimated scf accuracy    <       0.00000001 Ry

     total magnetization       =     0.00 Bohr mag/cell
     absolute magnetization    =     0.00 Bohr mag/cell

     iteration #364     ecut=    50.00 Ry     beta= 0.01
     Davidson diagonalization with overlap

---- Real-time Memory Report at c_bands before calling an iterative solver
          1210 MiB given to the printing process from OS
           709 MiB allocation reported by mallinfo(arena+hblkhd)
        228114 MiB available memory on the node where the printing process lives
------------------
     ethr =  9.66E-13,  avg # of iterations =  2.0

     negative rho (up, down):  5.337E-03 5.337E-03

     total cpu time spent up to now is    19853.8 secs

     total energy              =  -12271.35570916 Ry
     estimated scf accuracy    <       0.00000001 Ry

     total magnetization       =     0.01 Bohr mag/cell
     absolute magnetization    =     0.01 Bohr mag/cell

     iteration #365     ecut=    50.00 Ry     beta= 0.01
     Davidson diagonalization with overlap

---- Real-time Memory Report at c_bands before calling an iterative solver
          1210 MiB given to the printing process from OS
           709 MiB allocation reported by mallinfo(arena+hblkhd)
        228129 MiB available memory on the node where the printing process lives
------------------
     ethr =  9.66E-13,  avg # of iterations =  1.0

     negative rho (up, down):  5.337E-03 5.337E-03

     total cpu time spent up to now is    19904.0 secs

     total energy              =  -12271.35570915 Ry
     estimated scf accuracy    <       0.00000001 Ry

     total magnetization       =     0.01 Bohr mag/cell
     absolute magnetization    =     0.01 Bohr mag/cell

     iteration #366     ecut=    50.00 Ry     beta= 0.01
     Davidson diagonalization with overlap

---- Real-time Memory Report at c_bands before calling an iterative solver
          1210 MiB given to the printing process from OS
           709 MiB allocation reported by mallinfo(arena+hblkhd)
        228316 MiB available memory on the node where the printing process lives
------------------
     ethr =  9.66E-13,  avg # of iterations =  1.0

     negative rho (up, down):  5.338E-03 5.338E-03

     total cpu time spent up to now is    19955.4 secs

     total energy              =  -12271.35570917 Ry
     estimated scf accuracy    <       0.00000001 Ry

     total magnetization       =     0.00 Bohr mag/cell
     absolute magnetization    =     0.00 Bohr mag/cell

     iteration #367     ecut=    50.00 Ry     beta= 0.01
     Davidson diagonalization with overlap

---- Real-time Memory Report at c_bands before calling an iterative solver
          1210 MiB given to the printing process from OS
           709 MiB allocation reported by mallinfo(arena+hblkhd)
        228178 MiB available memory on the node where the printing process lives
------------------
     ethr =  9.66E-13,  avg # of iterations =  2.0

     negative rho (up, down):  5.337E-03 5.337E-03

     total cpu time spent up to now is    20013.3 secs

     total energy              =  -12271.35570916 Ry
     estimated scf accuracy    <       0.00000001 Ry

     total magnetization       =     0.00 Bohr mag/cell
     absolute magnetization    =     0.00 Bohr mag/cell

     iteration #368     ecut=    50.00 Ry     beta= 0.01
     Davidson diagonalization with overlap

---- Real-time Memory Report at c_bands before calling an iterative solver
          1210 MiB given to the printing process from OS
           709 MiB allocation reported by mallinfo(arena+hblkhd)
        228077 MiB available memory on the node where the printing process lives
------------------
     ethr =  9.66E-13,  avg # of iterations =  1.0

     negative rho (up, down):  5.338E-03 5.338E-03

     total cpu time spent up to now is    20064.3 secs

     total energy              =  -12271.35570916 Ry
     estimated scf accuracy    <       0.00000001 Ry

     total magnetization       =     0.00 Bohr mag/cell
     absolute magnetization    =     0.00 Bohr mag/cell

     iteration #369     ecut=    50.00 Ry     beta= 0.01
     Davidson diagonalization with overlap

---- Real-time Memory Report at c_bands before calling an iterative solver
          1210 MiB given to the printing process from OS
           709 MiB allocation reported by mallinfo(arena+hblkhd)
        228142 MiB available memory on the node where the printing process lives
------------------
     ethr =  9.66E-13,  avg # of iterations =  1.0

     negative rho (up, down):  5.337E-03 5.337E-03

     total cpu time spent up to now is    20114.5 secs

     total energy              =  -12271.35570916 Ry
     estimated scf accuracy    <       0.00000001 Ry

     total magnetization       =     0.00 Bohr mag/cell
     absolute magnetization    =     0.00 Bohr mag/cell

     iteration #370     ecut=    50.00 Ry     beta= 0.01
     Davidson diagonalization with overlap

---- Real-time Memory Report at c_bands before calling an iterative solver
          1210 MiB given to the printing process from OS
           709 MiB allocation reported by mallinfo(arena+hblkhd)
        227880 MiB available memory on the node where the printing process lives
------------------
     ethr =  9.61E-13,  avg # of iterations =  1.0

     negative rho (up, down):  5.312E-03 5.312E-03

     Magnetic moment per site  (integrated on atomic sphere of radius R)
     atom   1 (R=0.049)  charge=  0.2700  magn=  0.0000
     atom   2 (R=0.049)  charge=  0.2681  magn=  0.0000
     atom   3 (R=0.049)  charge=  0.2713  magn=  0.0000
     atom   4 (R=0.049)  charge=  0.2983  magn=  0.0000
     atom   5 (R=0.049)  charge=  0.3224  magn=  0.0000
     atom   6 (R=0.049)  charge=  0.2521  magn= -0.0000
     atom   7 (R=0.049)  charge=  4.7504  magn= -0.0000
     atom   8 (R=0.049)  charge=  4.7504  magn= -0.0000
     atom   9 (R=0.049)  charge=  4.7504  magn= -0.0000
     atom  10 (R=0.049)  charge=  4.8434  magn=  0.0000
     atom  11 (R=0.049)  charge=  4.8442  magn=  0.0000
     atom  12 (R=0.049)  charge=  4.8435  magn= -0.0000
     atom  13 (R=0.049)  charge=  4.8098  magn= -0.0000
     atom  14 (R=0.049)  charge=  4.8098  magn= -0.0000
     atom  15 (R=0.049)  charge=  4.8098  magn= -0.0000
     atom  16 (R=0.049)  charge=  0.2700  magn=  0.0000
     atom  17 (R=0.049)  charge=  0.2681  magn=  0.0000
     atom  18 (R=0.049)  charge=  0.2713  magn= -0.0000
     atom  19 (R=0.049)  charge=  0.2983  magn=  0.0000
     atom  20 (R=0.049)  charge=  0.3227  magn=  0.0000
     atom  21 (R=0.049)  charge=  0.2521  magn= -0.0000
     atom  22 (R=0.049)  charge=  4.7502  magn= -0.0000
     atom  23 (R=0.049)  charge=  4.7500  magn= -0.0000
     atom  24 (R=0.049)  charge=  4.7503  magn= -0.0000
     atom  25 (R=0.049)  charge=  4.8441  magn=  0.0000
     atom  26 (R=0.049)  charge=  4.8431  magn=  0.0000
     atom  27 (R=0.049)  charge=  4.8437  magn=  0.0000
     atom  28 (R=0.049)  charge=  4.8099  magn= -0.0000
     atom  29 (R=0.049)  charge=  4.8097  magn=  0.0000
     atom  30 (R=0.049)  charge=  4.8097  magn=  0.0000
     atom  31 (R=0.049)  charge=  0.2700  magn=  0.0000
     atom  32 (R=0.049)  charge=  0.2681  magn=  0.0000
     atom  33 (R=0.049)  charge=  0.2713  magn= -0.0000
     atom  34 (R=0.049)  charge=  0.2983  magn=  0.0000
     atom  35 (R=0.049)  charge=  0.3227  magn=  0.0000
     atom  36 (R=0.049)  charge=  0.2521  magn= -0.0000
     atom  37 (R=0.049)  charge=  4.7500  magn=  0.0000
     atom  38 (R=0.049)  charge=  4.7502  magn= -0.0000
     atom  39 (R=0.049)  charge=  4.7503  magn= -0.0000
     atom  40 (R=0.049)  charge=  4.8435  magn= -0.0000
     atom  41 (R=0.049)  charge=  4.8434  magn=  0.0000
     atom  42 (R=0.049)  charge=  4.8442  magn=  0.0000
     atom  43 (R=0.049)  charge=  4.8100  magn=  0.0000
     atom  44 (R=0.049)  charge=  4.8099  magn= -0.0000
     atom  45 (R=0.049)  charge=  4.8098  magn= -0.0000
     atom  46 (R=0.049)  charge=  0.2700  magn=  0.0000
     atom  47 (R=0.049)  charge=  0.2681  magn=  0.0000
     atom  48 (R=0.049)  charge=  0.2713  magn= -0.0000
     atom  49 (R=0.049)  charge=  0.2983  magn=  0.0000
     atom  50 (R=0.049)  charge=  0.3227  magn=  0.0000
     atom  51 (R=0.049)  charge=  0.2521  magn= -0.0000
     atom  52 (R=0.049)  charge=  4.7500  magn= -0.0000
     atom  53 (R=0.049)  charge=  4.7503  magn= -0.0000
     atom  54 (R=0.049)  charge=  4.7502  magn= -0.0000
     atom  55 (R=0.049)  charge=  4.8442  magn=  0.0000
     atom  56 (R=0.049)  charge=  4.8435  magn= -0.0000
     atom  57 (R=0.049)  charge=  4.8434  magn=  0.0000
     atom  58 (R=0.049)  charge=  4.8099  magn=  0.0000
     atom  59 (R=0.049)  charge=  4.8098  magn= -0.0000
     atom  60 (R=0.049)  charge=  4.8099  magn= -0.0000
     atom  61 (R=0.049)  charge=  0.2700  magn=  0.0000
     atom  62 (R=0.049)  charge=  0.2682  magn=  0.0000
     atom  63 (R=0.049)  charge=  0.2713  magn= -0.0000
     atom  64 (R=0.049)  charge=  0.2983  magn=  0.0000
     atom  65 (R=0.049)  charge=  0.3227  magn=  0.0000
     atom  66 (R=0.049)  charge=  0.2522  magn= -0.0000
     atom  67 (R=0.049)  charge=  4.7503  magn= -0.0000
     atom  68 (R=0.049)  charge=  4.7500  magn=  0.0000
     atom  69 (R=0.049)  charge=  4.7502  magn= -0.0000
     atom  70 (R=0.049)  charge=  4.8454  magn=  0.0000
     atom  71 (R=0.049)  charge=  4.8448  magn=  0.0000
     atom  72 (R=0.049)  charge=  4.8438  magn=  0.0000
     atom  73 (R=0.049)  charge=  4.8098  magn= -0.0000
     atom  74 (R=0.049)  charge=  4.8099  magn=  0.0000
     atom  75 (R=0.049)  charge=  4.8098  magn=  0.0000
     atom  76 (R=0.049)  charge=  0.2701  magn=  0.0000
     atom  77 (R=0.049)  charge=  0.2682  magn=  0.0000
     atom  78 (R=0.049)  charge=  0.2713  magn= -0.0000
     atom  79 (R=0.049)  charge=  0.2983  magn=  0.0000
     atom  80 (R=0.049)  charge=  0.3240  magn=  0.0000
     atom  81 (R=0.049)  charge=  0.2522  magn= -0.0000
     atom  82 (R=0.049)  charge=  4.7497  magn=  0.0000
     atom  83 (R=0.049)  charge=  4.7497  magn=  0.0000
     atom  84 (R=0.049)  charge=  4.7497  magn=  0.0000
     atom  85 (R=0.049)  charge=  4.8448  magn=  0.0000
     atom  86 (R=0.049)  charge=  4.8438  magn=  0.0000
     atom  87 (R=0.049)  charge=  4.8454  magn=  0.0000
     atom  88 (R=0.049)  charge=  4.8100  magn=  0.0000
     atom  89 (R=0.049)  charge=  4.8098  magn= -0.0000
     atom  90 (R=0.049)  charge=  4.8100  magn=  0.0000
     atom  91 (R=0.049)  charge=  0.2700  magn=  0.0000
     atom  92 (R=0.049)  charge=  0.2681  magn=  0.0000
     atom  93 (R=0.049)  charge=  0.2713  magn= -0.0000
     atom  94 (R=0.049)  charge=  0.2983  magn=  0.0000
     atom  95 (R=0.049)  charge=  0.3227  magn=  0.0000
     atom  96 (R=0.049)  charge=  0.2521  magn= -0.0000
     atom  97 (R=0.049)  charge=  4.7502  magn= -0.0000
     atom  98 (R=0.049)  charge=  4.7503  magn= -0.0000
     atom  99 (R=0.049)  charge=  4.7500  magn=  0.0000
     atom 100 (R=0.049)  charge=  4.8431  magn=  0.0000
     atom 101 (R=0.049)  charge=  4.8437  magn=  0.0000
     atom 102 (R=0.049)  charge=  4.8441  magn=  0.0000
     atom 103 (R=0.049)  charge=  4.8098  magn= -0.0000
     atom 104 (R=0.049)  charge=  4.8097  magn=  0.0000
     atom 105 (R=0.049)  charge=  4.8100  magn=  0.0000
     atom 106 (R=0.049)  charge=  0.2700  magn=  0.0000
     atom 107 (R=0.049)  charge=  0.2681  magn=  0.0000
     atom 108 (R=0.049)  charge=  0.2713  magn= -0.0000
     atom 109 (R=0.049)  charge=  0.2983  magn=  0.0000
     atom 110 (R=0.049)  charge=  0.3226  magn= -0.0000
     atom 111 (R=0.049)  charge=  0.2521  magn= -0.0000
     atom 112 (R=0.049)  charge=  4.7505  magn= -0.0000
     atom 113 (R=0.049)  charge=  4.7505  magn= -0.0000
     atom 114 (R=0.049)  charge=  4.7505  magn= -0.0000
     atom 115 (R=0.049)  charge=  4.8437  magn=  0.0000
     atom 116 (R=0.049)  charge=  4.8441  magn=  0.0000
     atom 117 (R=0.049)  charge=  4.8431  magn=  0.0000
     atom 118 (R=0.049)  charge=  4.8097  magn=  0.0000
     atom 119 (R=0.049)  charge=  4.8100  magn=  0.0000
     atom 120 (R=0.049)  charge=  4.8097  magn=  0.0000
     atom 121 (R=0.049)  charge=  0.2700  magn=  0.0000
     atom 122 (R=0.049)  charge=  0.2682  magn=  0.0000
     atom 123 (R=0.049)  charge=  0.2713  magn= -0.0000
     atom 124 (R=0.049)  charge=  0.2983  magn=  0.0000
     atom 125 (R=0.049)  charge=  0.3227  magn=  0.0000
     atom 126 (R=0.049)  charge=  0.2522  magn= -0.0000
     atom 127 (R=0.049)  charge=  4.7503  magn= -0.0000
     atom 128 (R=0.049)  charge=  4.7502  magn= -0.0000
     atom 129 (R=0.049)  charge=  4.7500  magn= -0.0000
     atom 130 (R=0.049)  charge=  4.8438  magn=  0.0000
     atom 131 (R=0.049)  charge=  4.8454  magn=  0.0000
     atom 132 (R=0.049)  charge=  4.8448  magn=  0.0000
     atom 133 (R=0.049)  charge=  4.8097  magn=  0.0000
     atom 134 (R=0.049)  charge=  4.8100  magn=  0.0000
     atom 135 (R=0.049)  charge=  4.8099  magn=  0.0000
     atom 136 (R=0.076)  charge= 10.0982  magn=  0.0002
     atom 137 (R=0.076)  charge=  4.0586  magn=  0.0000
     atom 138 (R=0.076)  charge=  4.0596  magn=  0.0000
     atom 139 (R=0.076)  charge= 10.0978  magn=  0.0002
     atom 140 (R=0.076)  charge=  4.0599  magn=  0.0000
     atom 141 (R=0.076)  charge=  4.0638  magn=  0.0000
     atom 142 (R=0.076)  charge= 10.0974  magn=  0.0001
     atom 143 (R=0.076)  charge=  4.0577  magn=  0.0000
     atom 144 (R=0.076)  charge=  4.0693  magn=  0.0000
     atom 145 (R=0.076)  charge= 10.1008  magn=  0.0002
     atom 146 (R=0.076)  charge=  4.0585  magn=  0.0000
     atom 147 (R=0.076)  charge=  4.0598  magn=  0.0000
     atom 148 (R=0.076)  charge= 10.0977  magn=  0.0002
     atom 149 (R=0.076)  charge=  4.0577  magn=  0.0000
     atom 150 (R=0.076)  charge=  4.0609  magn=  0.0000
     atom 151 (R=0.076)  charge= 10.1007  magn=  0.0002
     atom 152 (R=0.076)  charge=  4.0579  magn=  0.0000
     atom 153 (R=0.076)  charge=  4.0693  magn=  0.0000
     atom 154 (R=0.076)  charge= 10.0958  magn=  0.0001
     atom 155 (R=0.076)  charge=  4.0589  magn=  0.0000
     atom 156 (R=0.076)  charge=  4.0774  magn=  0.0000
     atom 157 (R=0.076)  charge= 10.0954  magn=  0.0001
     atom 158 (R=0.076)  charge=  4.0597  magn=  0.0000
     atom 159 (R=0.076)  charge=  4.0639  magn=  0.0000
     atom 160 (R=0.076)  charge= 10.0975  magn=  0.0001
     atom 161 (R=0.076)  charge=  4.0574  magn=  0.0000
     atom 162 (R=0.076)  charge=  4.0581  magn=  0.0000
     atom 163 (R=0.076)  charge= 10.0963  magn=  0.0001
     atom 164 (R=0.076)  charge=  4.0573  magn=  0.0000
     atom 165 (R=0.076)  charge=  4.0581  magn=  0.0000
     atom 166 (R=0.076)  charge= 10.0977  magn=  0.0001
     atom 167 (R=0.076)  charge=  4.0596  magn=  0.0000
     atom 168 (R=0.076)  charge=  4.0640  magn=  0.0000
     atom 169 (R=0.076)  charge= 10.0951  magn=  0.0001
     atom 170 (R=0.076)  charge=  4.0577  magn=  0.0000
     atom 171 (R=0.076)  charge=  4.0693  magn=  0.0000
     atom 172 (R=0.076)  charge= 10.1007  magn=  0.0002
     atom 173 (R=0.076)  charge=  4.0577  magn=  0.0000
     atom 174 (R=0.076)  charge=  4.0610  magn=  0.0000
     atom 175 (R=0.076)  charge= 10.0965  magn=  0.0001
     atom 176 (R=0.076)  charge=  4.0573  magn=  0.0000
     atom 177 (R=0.076)  charge=  4.0581  magn=  0.0000
     atom 178 (R=0.076)  charge= 10.0961  magn=  0.0001
     atom 179 (R=0.076)  charge=  4.0576  magn=  0.0000
     atom 180 (R=0.076)  charge=  4.0610  magn=  0.0000
     atom 181 (R=0.076)  charge= 10.0976  magn=  0.0002
     atom 182 (R=0.076)  charge=  4.0586  magn=  0.0000
     atom 183 (R=0.076)  charge=  4.0597  magn=  0.0000

     total cpu time spent up to now is    20165.5 secs

     End of self-consistent calculation

 ------ SPIN UP ------------


          k = 0.0000 0.0000 0.0000 (320189 PWs)   bands (ev):

   -59.6503 -59.6460 -59.6447 -59.6096 -59.6085 -59.6080 -59.5905 -59.5871
   -59.5867 -59.5858 -59.5832 -59.5828 -59.5767 -59.5763 -59.5758 -59.5663
   -35.7942 -35.7938 -35.7937 -35.7644 -35.7543 -35.7499 -35.7496 -35.7421
   -35.7420 -35.7065 -35.7061 -35.6977 -35.6933 -35.6907 -35.6905 -35.6810
   -35.6805 -35.6783 -35.6756 -35.6688 -35.6643 -35.6641 -35.6609 -35.6600
   -35.6372 -35.6358 -35.6354 -35.6328 -35.6307 -35.6301 -35.6214 -35.6201
   -35.6179 -35.6177 -35.6142 -35.6140 -35.6083 -35.6072 -35.6069 -35.6014
   -35.6012 -35.5981 -35.5969 -35.5957 -35.5955 -35.5891 -35.5855 -35.5854
   -23.8071 -23.3670 -23.3556 -23.3555 -23.3102 -23.3101 -23.2959 -22.7501
   -22.7501 -22.7255 -22.4594 -22.4593 -22.4123 -22.3953 -22.3952 -22.3818
   -22.3761 -22.3436 -22.3434 -22.3405 -22.1677 -22.1676 -22.1595 -22.1550
   -22.1550 -22.1500 -21.8992 -21.8238 -21.8120 -21.8090 -21.8090 -21.7873
   -21.7867 -21.7866 -21.7422 -21.7421 -21.7305 -21.6813 -21.6812 -21.6690
   -21.6588 -21.6588 -21.6359 -21.6306 -21.6305 -21.5363 -21.5361 -21.5248
   -21.5176 -21.5175 -21.4999 -21.4998 -21.4992 -21.4347 -21.4345 -21.4344
   -21.3875 -21.3792 -21.3791 -21.3367 -21.3365 -21.2612 -21.2591 -21.1731
   -21.1731 -21.1661 -21.1661 -21.0782 -21.0768 -21.0768 -21.0757 -21.0756
   -21.0756 -20.9545 -20.9543 -20.9543 -20.9491 -20.9484 -20.9484 -20.8560
   -20.8560 -17.8447 -17.3359 -17.3284 -17.3280 -17.3022 -17.3019 -17.2813
   -16.8361 -16.7867 -16.7541 -16.7074 -16.7073 -16.6720 -16.6717 -16.6556
   -16.6537 -16.6534 -16.6192 -16.6179 -16.6176 -16.5948 -16.5944 -16.5857
   -16.3823 -16.3663 -16.3494 -16.3493 -16.3230 -16.3229 -16.3204 -16.3143
   -16.3142 -11.0889 -11.0538 -11.0509 -11.0508 -11.0250 -11.0249 -11.0188
   -10.7133 -10.7075 -10.7074 -10.6868 -10.6853 -10.6853 -10.5395 -10.5319
   -10.5112 -10.5111 -10.5110 -10.5054 -10.5053 -10.4927 -10.4812 -10.4800
   -10.4799 -10.3071 -10.3071 -10.0941 -10.0941 -10.0811 -10.0810 -10.0702
   -10.0541 -10.0540 -10.0440 -10.0423 -10.0422  -9.6941  -9.6907  -9.6906
    -9.6905  -9.6670  -9.6670  -9.6632  -9.5440  -9.5423  -9.4605  -9.4605
    -9.3033  -9.3033  -9.2950  -9.2629  -9.2587  -9.2495  -9.2495  -9.1730
    -9.1729  -9.1631  -9.1332  -9.1332  -9.0273  -9.0095  -9.0036  -9.0035
    -8.9969  -8.9969  -8.9811  -8.9429  -8.9308  -8.9251  -8.9251  -8.8238
    -8.8238  -8.6750  -8.6686  -8.6684  -8.6372  -8.6370  -8.6186  -8.6185
    -8.6139  -8.6084  -8.6081  -8.6026  -8.5929  -8.5922  -8.5912  -8.4826
    -8.3768  -8.3723  -8.3722  -8.3481  -8.3481  -8.3398  -8.3188  -8.3163
    -8.3163  -8.2707  -8.2705  -8.2688  -8.2607  -8.2581  -8.2580  -8.2314
    -8.2296  -8.2293  -8.1430  -8.1297  -8.1283  -8.1283  -8.0724  -8.0724
    -8.0641  -8.0542  -8.0541  -8.0472  -8.0041  -7.9961  -7.9951  -7.9950
    -7.9686  -7.9684  -7.9060  -7.8572  -7.8570  -7.8489  -7.8324  -7.8323
    -7.8312  -7.8036  -7.8035  -7.7940  -7.7769  -7.7675  -7.7673  -7.7331
    -7.7071  -7.7070  -7.6451  -7.6227  -7.6224  -7.6223  -7.6102  -7.6101
    -7.4402  -7.4240  -7.4238  -7.4125  -7.4124  -7.3970  -7.3420  -7.3396
    -7.3396  -7.3166  -7.3166  -7.3129  -7.2117  -7.2117  -7.1996  -7.1994
    -7.1975  -7.1830  -7.1632  -7.1630  -7.1244  -7.0849  -7.0735  -7.0734
    -7.0593  -7.0538  -7.0508  -7.0505  -7.0377  -7.0326  -7.0323  -6.9404
    -6.9402  -6.9297  -6.9182  -6.9181  -6.9026  -6.8861  -6.8790  -6.8789
    -6.8573  -6.8571  -6.8321  -6.8319  -6.8281  -6.8239  -6.8166  -6.8164
    -6.8074  -6.8070  -6.7918  -6.7899  -6.7880  -6.7868  -6.7720  -6.7710
    -6.7686  -6.7607  -6.7590  -6.7590  -6.6534  -6.6533  -6.6442  -6.6249
    -6.6248  -6.6136  -6.5919  -6.5919  -6.5505  -6.5505  -6.5462  -6.5252
    -6.5251  -6.5089  -6.5087  -6.5037  -6.4609  -6.4609  -6.4503  -6.4501
    -6.4375  -6.4294  -6.3802  -6.3616  -6.3615  -6.3486  -6.3486  -6.3318
    -6.3275  -6.3152  -6.3148  -6.2969  -6.2967  -6.2899  -6.1729  -6.1729
    -6.1282  -6.1030  -6.1029  -6.0967  -6.0735  -6.0734  -6.0721  -6.0591
    -6.0553  -6.0552  -6.0410  -6.0410  -6.0264  -6.0058  -6.0057  -5.9917
    -5.9917  -5.9575  -5.9432  -5.9399  -5.9396  -5.9208  -5.9206  -5.9128
    -5.8993  -5.8987  -5.8983  -5.8839  -5.8820  -5.8818  -5.8599  -5.7193
    -5.7185  -5.7183  -5.7045  -5.7043  -5.6770  -5.6497  -5.6393  -5.6392
    -5.6209  -5.6018  -5.5832  -5.5831  -5.5256  -5.5253  -5.5098  -5.5097
    -5.4931  -5.4929  -5.4587  -5.4523  -5.4520  -5.4244  -5.4192  -5.4192
    -5.3862  -5.3794  -5.3792  -5.3709  -5.3492  -5.3491  -5.3402  -5.3166
    -5.3163  -5.3075  -5.3071  -5.2913  -5.2796  -5.2422  -5.2417  -5.1825
    -5.1757  -5.1756  -5.1599  -5.1599  -5.1559  -5.1318  -5.1317  -5.1186
    -5.0775  -5.0660  -5.0420  -5.0420  -4.9972  -4.9787  -4.9784  -4.9652
    -4.9462  -4.9461  -4.7352  -4.7352  -4.7310  -4.7294  -4.7294  -4.7256
    -4.7221  -4.7221  -4.5386  -4.5385  -4.5350  -4.4753  -4.4752  -4.4352
    -4.4168  -4.4168  -4.4122  -4.4087  -4.4086  -4.3924  -4.3921  -4.3874
    -4.3759  -4.3708  -4.3702  -4.0299  -3.7061  -3.7057  -3.7057  -3.6976
    -3.6976  -3.6969  -3.5562  -3.5562  -3.5544  -2.2736  -2.2729  -2.2724
    -2.2420  -2.2415  -2.2377  -2.2019  -2.2017  -2.1805  -2.0321  -2.0320
    -2.0181  -2.0087  -2.0083  -1.9661  -1.9426  -1.9408  -1.9317  -1.9305
    -1.9157  -1.9155  -1.8420  -1.8417  -1.8405  -1.7982  -1.7922  -1.7126
    -1.7121  -1.6806  -1.6774  -1.6770  -1.6652  -1.6648  -1.6427  -1.6412
    -1.6410  -1.6205  -1.6203  -1.4344  -1.4343  -1.4200  -1.3241  -1.3166
    -1.1786  -1.1777  -1.1732  -1.1723  -0.8027  -0.8021  -0.8014  -0.7916
    -0.7855  -0.7853  -0.7615  -0.7614  -0.7583  -0.6126  -0.6115  -0.6115
    -0.6103  -0.6102  -0.6100  -0.3296  -0.2899  -0.2797  -0.2209  -0.2205
    -0.2072  -0.2072  -0.1843  -0.1721  -0.1720  -0.0904   0.1048   0.1048
     0.1324   0.1336   0.1336   0.1351   0.1351   0.1358   0.2183   0.2185
     0.7366   0.8352   0.8671   0.8677   0.9785   0.9789   0.9789   0.9802
     0.9810   0.9810   1.0225   1.1428   1.3522   1.3527   1.3856   1.3856
     1.4941   1.5114   1.5574   1.5600   1.5602   1.6121   1.6864   1.6865
     1.7013   1.7038

     occupation numbers 
     1.0000   1.0000   1.0000   1.0000   1.0000   1.0000   1.0000   1.0000
     1.0000   1.0000   1.0000   1.0000   1.0000   1.0000   1.0000   1.0000
     1.0000   1.0000   1.0000   1.0000   1.0000   1.0000   1.0000   1.0000
     1.0000   1.0000   1.0000   1.0000   1.0000   1.0000   1.0000   1.0000
     1.0000   1.0000   1.0000   1.0000   1.0000   1.0000   1.0000   1.0000
     1.0000   1.0000   1.0000   1.0000   1.0000   1.0000   1.0000   1.0000
     1.0000   1.0000   1.0000   1.0000   1.0000   1.0000   1.0000   1.0000
     1.0000   1.0000   1.0000   1.0000   1.0000   1.0000   1.0000   1.0000
     1.0000   1.0000   1.0000   1.0000   1.0000   1.0000   1.0000   1.0000
     1.0000   1.0000   1.0000   1.0000   1.0000   1.0000   1.0000   1.0000
     1.0000   1.0000   1.0000   1.0000   1.0000   1.0000   1.0000   1.0000
     1.0000   1.0000   1.0000   1.0000   1.0000   1.0000   1.0000   1.0000
     1.0000   1.0000   1.0000   1.0000   1.0000   1.0000   1.0000   1.0000
     1.0000   1.0000   1.0000   1.0000   1.0000   1.0000   1.0000   1.0000
     1.0000   1.0000   1.0000   1.0000   1.0000   1.0000   1.0000   1.0000
     1.0000   1.0000   1.0000   1.0000   1.0000   1.0000   1.0000   1.0000
     1.0000   1.0000   1.0000   1.0000   1.0000   1.0000   1.0000   1.0000
     1.0000   1.0000   1.0000   1.0000   1.0000   1.0000   1.0000   1.0000
     1.0000   1.0000   1.0000   1.0000   1.0000   1.0000   1.0000   1.0000
     1.0000   1.0000   1.0000   1.0000   1.0000   1.0000   1.0000   1.0000
     1.0000   1.0000   1.0000   1.0000   1.0000   1.0000   1.0000   1.0000
     1.0000   1.0000   1.0000   1.0000   1.0000   1.0000   1.0000   1.0000
     1.0000   1.0000   1.0000   1.0000   1.0000   1.0000   1.0000   1.0000
     1.0000   1.0000   1.0000   1.0000   1.0000   1.0000   1.0000   1.0000
     1.0000   1.0000   1.0000   1.0000   1.0000   1.0000   1.0000   1.0000
     1.0000   1.0000   1.0000   1.0000   1.0000   1.0000   1.0000   1.0000
     1.0000   1.0000   1.0000   1.0000   1.0000   1.0000   1.0000   1.0000
     1.0000   1.0000   1.0000   1.0000   1.0000   1.0000   1.0000   1.0000
     1.0000   1.0000   1.0000   1.0000   1.0000   1.0000   1.0000   1.0000
     1.0000   1.0000   1.0000   1.0000   1.0000   1.0000   1.0000   1.0000
     1.0000   1.0000   1.0000   1.0000   1.0000   1.0000   1.0000   1.0000
     1.0000   1.0000   1.0000   1.0000   1.0000   1.0000   1.0000   1.0000
     1.0000   1.0000   1.0000   1.0000   1.0000   1.0000   1.0000   1.0000
     1.0000   1.0000   1.0000   1.0000   1.0000   1.0000   1.0000   1.0000
     1.0000   1.0000   1.0000   1.0000   1.0000   1.0000   1.0000   1.0000
     1.0000   1.0000   1.0000   1.0000   1.0000   1.0000   1.0000   1.0000
     1.0000   1.0000   1.0000   1.0000   1.0000   1.0000   1.0000   1.0000
     1.0000   1.0000   1.0000   1.0000   1.0000   1.0000   1.0000   1.0000
     1.0000   1.0000   1.0000   1.0000   1.0000   1.0000   1.0000   1.0000
     1.0000   1.0000   1.0000   1.0000   1.0000   1.0000   1.0000   1.0000
     1.0000   1.0000   1.0000   1.0000   1.0000   1.0000   1.0000   1.0000
     1.0000   1.0000   1.0000   1.0000   1.0000   1.0000   1.0000   1.0000
     1.0000   1.0000   1.0000   1.0000   1.0000   1.0000   1.0000   1.0000
     1.0000   1.0000   1.0000   1.0000   1.0000   1.0000   1.0000   1.0000
     1.0000   1.0000   1.0000   1.0000   1.0000   1.0000   1.0000   1.0000
     1.0000   1.0000   1.0000   1.0000   1.0000   1.0000   1.0000   1.0000
     1.0000   1.0000   1.0000   1.0000   1.0000   1.0000   1.0000   1.0000
     1.0000   1.0000   1.0000   1.0000   1.0000   1.0000   1.0000   1.0000
     1.0000   1.0000   1.0000   1.0000   1.0000   1.0000   1.0000   1.0000
     1.0000   1.0000   1.0000   1.0000   1.0000   1.0000   1.0000   1.0000
     1.0000   1.0000   1.0000   1.0000   1.0000   1.0000   1.0000   1.0000
     1.0000   1.0000   1.0000   1.0000   1.0000   1.0000   1.0000   1.0000
     1.0000   1.0000   1.0000   1.0000   1.0000   1.0000   1.0000   1.0000
     1.0000   1.0000   1.0000   1.0000   1.0000   1.0000   1.0000   1.0000
     1.0000   1.0000   1.0000   1.0000   1.0000   1.0000   1.0000   1.0000
     1.0000   1.0000   1.0000   1.0000   1.0000   1.0000   1.0000   1.0000
     1.0000   1.0000   1.0000   1.0000   1.0000   1.0000   1.0000   1.0000
     1.0000   1.0000   1.0000   1.0000   1.0000   1.0000   1.0000   1.0000
     1.0000   1.0000   1.0000   1.0000   1.0000   1.0000   1.0000   1.0000
     1.0001   1.0001   1.0001   1.0001   1.0001   1.0001   1.0002   1.0003
     1.0003   1.0003   1.0003   1.0004   1.0005   1.0010   1.0010   1.0025
     1.0028   1.0028   1.0035   1.0036   1.0038   1.0053   1.0053   1.0063
     1.0108   1.0123   1.0163   1.0163   1.0259   1.0308   1.0309   1.0347
     1.0405   1.0406   1.0740   1.0740   1.0722   1.0715   1.0715   1.0697
     1.0679   1.0678   0.7740   0.7737   0.7647   0.6033   0.6033   0.4933
     0.4443   0.4442   0.4324   0.4233   0.4230   0.3823   0.3815   0.3699
     0.3426   0.3307   0.3293   0.0073   0.0000   0.0000   0.0000   0.0000
     0.0000   0.0000   0.0000   0.0000   0.0000   0.0000   0.0000   0.0000
     0.0000   0.0000   0.0000   0.0000   0.0000   0.0000   0.0000   0.0000
     0.0000   0.0000   0.0000   0.0000   0.0000   0.0000   0.0000   0.0000
     0.0000   0.0000   0.0000   0.0000   0.0000   0.0000   0.0000   0.0000
     0.0000   0.0000   0.0000   0.0000   0.0000   0.0000   0.0000   0.0000
     0.0000   0.0000   0.0000   0.0000   0.0000   0.0000   0.0000   0.0000
     0.0000   0.0000   0.0000   0.0000   0.0000   0.0000   0.0000   0.0000
     0.0000   0.0000   0.0000   0.0000   0.0000   0.0000   0.0000   0.0000
     0.0000   0.0000   0.0000   0.0000   0.0000   0.0000   0.0000   0.0000
     0.0000   0.0000   0.0000   0.0000   0.0000   0.0000   0.0000   0.0000
     0.0000   0.0000   0.0000   0.0000   0.0000   0.0000   0.0000   0.0000
     0.0000   0.0000   0.0000   0.0000   0.0000   0.0000   0.0000   0.0000
     0.0000   0.0000   0.0000   0.0000   0.0000   0.0000   0.0000   0.0000
     0.0000   0.0000   0.0000   0.0000   0.0000   0.0000   0.0000   0.0000
     0.0000   0.0000

          k = 0.0000 0.3849 0.0000 (319990 PWs)   bands (ev):

   -59.6503 -59.6460 -59.6447 -59.6097 -59.6084 -59.6080 -59.5903 -59.5881
   -59.5868 -59.5847 -59.5835 -59.5829 -59.5768 -59.5764 -59.5758 -59.5663
   -35.7906 -35.7897 -35.7868 -35.7673 -35.7580 -35.7522 -35.7517 -35.7374
   -35.7363 -35.7323 -35.7200 -35.7115 -35.6994 -35.6932 -35.6834 -35.6777
   -35.6764 -35.6753 -35.6674 -35.6610 -35.6603 -35.6568 -35.6510 -35.6436
   -35.6380 -35.6370 -35.6360 -35.6347 -35.6309 -35.6306 -35.6253 -35.6222
   -35.6202 -35.6150 -35.6138 -35.6124 -35.6109 -35.6076 -35.6070 -35.6028
   -35.6017 -35.5988 -35.5969 -35.5964 -35.5952 -35.5929 -35.5888 -35.5866
   -23.7530 -23.5899 -23.4335 -23.4260 -23.1514 -23.1457 -23.0244 -22.9065
   -22.9060 -22.6825 -22.5676 -22.5476 -22.4733 -22.4692 -22.4369 -22.4263
   -22.3761 -22.3749 -22.1889 -22.1831 -22.1689 -22.1634 -22.0760 -22.0140
   -22.0105 -21.9691 -21.9594 -21.9038 -21.8919 -21.8835 -21.8693 -21.8454
   -21.8145 -21.8079 -21.7857 -21.7517 -21.7419 -21.7210 -21.6927 -21.6853
   -21.6654 -21.6521 -21.6473 -21.5977 -21.5705 -21.5658 -21.5625 -21.4991
   -21.4896 -21.4727 -21.4617 -21.4582 -21.4471 -21.4359 -21.4235 -21.4024
   -21.4016 -21.3825 -21.3649 -21.3439 -21.3395 -21.3339 -21.3211 -21.2250
   -21.1851 -21.1837 -21.1413 -21.1389 -21.0732 -21.0723 -21.0158 -21.0136
   -20.9923 -20.9913 -20.9780 -20.9596 -20.9533 -20.9510 -20.9100 -20.8820
   -20.8718 -17.7780 -17.5882 -17.4206 -17.4106 -17.1347 -17.1273 -17.0152
   -16.9169 -16.9083 -16.8071 -16.7738 -16.7319 -16.7243 -16.7029 -16.6871
   -16.6554 -16.6503 -16.6436 -16.5690 -16.5666 -16.5286 -16.5273 -16.4801
   -16.4362 -16.4326 -16.3758 -16.3548 -16.3446 -16.3345 -16.3177 -16.2750
   -16.2739 -11.1092 -11.0494 -10.9878 -10.9818 -10.9785 -10.9162 -10.9130
   -10.7920 -10.7501 -10.7406 -10.7098 -10.6993 -10.6948 -10.6919 -10.6671
   -10.6066 -10.5845 -10.5780 -10.5503 -10.4804 -10.4654 -10.4018 -10.3701
   -10.3298 -10.2958 -10.2666 -10.2435 -10.2170 -10.2016 -10.1839 -10.1451
   -10.0985 -10.0651 -10.0515 -10.0069  -9.8889  -9.7848  -9.6934  -9.6790
    -9.6048  -9.5963  -9.5827  -9.5689  -9.5313  -9.4809  -9.3382  -9.3347
    -9.3131  -9.2868  -9.2643  -9.2535  -9.2398  -9.1995  -9.1815  -9.1364
    -9.1307  -9.0844  -9.0743  -9.0657  -9.0576  -9.0435  -9.0088  -8.9921
    -8.9844  -8.9687  -8.9554  -8.9218  -8.8924  -8.8682  -8.8529  -8.8331
    -8.7917  -8.7878  -8.7674  -8.7426  -8.7399  -8.7120  -8.6769  -8.6716
    -8.6655  -8.6132  -8.6010  -8.5896  -8.5703  -8.5558  -8.5167  -8.5038
    -8.4998  -8.4881  -8.4859  -8.4823  -8.4753  -8.4704  -8.4613  -8.4169
    -8.3638  -8.3031  -8.2866  -8.2733  -8.2608  -8.2458  -8.2335  -8.2285
    -8.1965  -8.1854  -8.1804  -8.1637  -8.1136  -8.1004  -8.0843  -8.0716
    -8.0664  -8.0438  -8.0401  -8.0143  -7.9680  -7.9587  -7.9412  -7.9313
    -7.8806  -7.8748  -7.8617  -7.8426  -7.8357  -7.8210  -7.8133  -7.8077
    -7.7964  -7.7820  -7.7651  -7.7322  -7.7298  -7.7161  -7.7048  -7.6872
    -7.6602  -7.6458  -7.6322  -7.6136  -7.6085  -7.5979  -7.5898  -7.5862
    -7.5662  -7.5597  -7.4927  -7.4407  -7.4252  -7.4101  -7.4009  -7.3932
    -7.3634  -7.3326  -7.3133  -7.2947  -7.2891  -7.2703  -7.2626  -7.2447
    -7.2334  -7.2298  -7.2078  -7.1978  -7.1661  -7.1617  -7.1416  -7.1219
    -7.1011  -7.0868  -7.0716  -7.0508  -7.0455  -7.0301  -6.9735  -6.9643
    -6.9549  -6.9527  -6.9410  -6.9292  -6.9159  -6.9133  -6.9035  -6.8955
    -6.8829  -6.8675  -6.8546  -6.8516  -6.8429  -6.8363  -6.8297  -6.8207
    -6.8133  -6.8034  -6.7986  -6.7825  -6.7763  -6.7643  -6.7493  -6.7199
    -6.7093  -6.6893  -6.6749  -6.6635  -6.6432  -6.6334  -6.6302  -6.6114
    -6.6079  -6.5684  -6.5577  -6.5487  -6.5231  -6.5076  -6.4968  -6.4918
    -6.4629  -6.4486  -6.4466  -6.4413  -6.4218  -6.4157  -6.4126  -6.3917
    -6.3896  -6.3790  -6.3613  -6.3482  -6.3174  -6.2973  -6.2909  -6.2855
    -6.2740  -6.2582  -6.2399  -6.2321  -6.2289  -6.2104  -6.1983  -6.1909
    -6.1749  -6.1560  -6.1361  -6.1188  -6.1110  -6.0864  -6.0748  -6.0695
    -6.0602  -6.0498  -6.0475  -6.0372  -6.0239  -6.0140  -5.9982  -5.9920
    -5.9671  -5.9553  -5.9452  -5.9391  -5.9343  -5.9286  -5.9206  -5.9085
    -5.9000  -5.8907  -5.8859  -5.8578  -5.8536  -5.8292  -5.8170  -5.7930
    -5.7673  -5.7594  -5.7392  -5.7197  -5.7102  -5.7034  -5.6906  -5.6608
    -5.6464  -5.6385  -5.6308  -5.6272  -5.6159  -5.6002  -5.5942  -5.5803
    -5.5690  -5.5585  -5.5335  -5.5002  -5.4703  -5.4619  -5.4592  -5.4508
    -5.4337  -5.4178  -5.3916  -5.3787  -5.3689  -5.3530  -5.3413  -5.3209
    -5.2930  -5.2861  -5.2772  -5.2618  -5.2514  -5.2398  -5.2259  -5.2106
    -5.2014  -5.1890  -5.1634  -5.1401  -5.1304  -5.1109  -5.0846  -5.0715
    -5.0558  -5.0323  -5.0273  -5.0165  -5.0004  -4.9897  -4.9711  -4.8934
    -4.8673  -4.8367  -4.8025  -4.7637  -4.7574  -4.7462  -4.7454  -4.6595
    -4.6571  -4.6502  -4.6246  -4.6163  -4.5965  -4.5751  -4.5719  -4.5611
    -4.5554  -4.5030  -4.4684  -4.4606  -4.4005  -4.3976  -4.2639  -4.2477
    -4.1447  -4.1389  -3.9935  -3.9681  -3.8293  -3.7484  -3.7479  -3.6534
    -3.6344  -3.6340  -3.6065  -3.5773  -3.5770  -2.5936  -2.5875  -2.2577
    -2.2320  -2.2156  -2.2005  -2.1974  -2.1598  -2.1539  -2.1216  -2.1046
    -2.0931  -2.0589  -2.0461  -1.9626  -1.9559  -1.9429  -1.9268  -1.9235
    -1.9111  -1.8927  -1.8864  -1.8714  -1.8551  -1.8452  -1.8286  -1.8125
    -1.8053  -1.8018  -1.7384  -1.7335  -1.7262  -1.6276  -1.5807  -1.5784
    -1.5345  -1.5269  -1.4783  -1.4749  -1.3183  -1.3037  -1.2924  -1.2561
    -1.1753  -1.0858  -1.0760  -1.0264  -1.0087  -1.0072  -0.8959  -0.8374
    -0.8350  -0.8057  -0.7987  -0.7581  -0.7577  -0.5034  -0.4955  -0.4578
    -0.4130  -0.4054  -0.4042  -0.3801  -0.3514  -0.3342  -0.2996  -0.2698
    -0.2540  -0.2451  -0.2367  -0.2282  -0.2125  -0.1902  -0.1893  -0.0140
     0.1232   0.1236   0.2843   0.2859   0.3047   0.4438   0.6155   0.6219
     0.8104   0.8665   0.8722   0.9177   0.9498   0.9820   1.0037   1.0162
     1.0512   1.1068   1.1523   1.1558   1.1623   1.2174   1.2702   1.2887
     1.3648   1.4453   1.4648   1.4729   1.5247   1.5338   1.6198   1.6229
     1.6419   1.6459

     occupation numbers 
     1.0000   1.0000   1.0000   1.0000   1.0000   1.0000   1.0000   1.0000
     1.0000   1.0000   1.0000   1.0000   1.0000   1.0000   1.0000   1.0000
     1.0000   1.0000   1.0000   1.0000   1.0000   1.0000   1.0000   1.0000
     1.0000   1.0000   1.0000   1.0000   1.0000   1.0000   1.0000   1.0000
     1.0000   1.0000   1.0000   1.0000   1.0000   1.0000   1.0000   1.0000
     1.0000   1.0000   1.0000   1.0000   1.0000   1.0000   1.0000   1.0000
     1.0000   1.0000   1.0000   1.0000   1.0000   1.0000   1.0000   1.0000
     1.0000   1.0000   1.0000   1.0000   1.0000   1.0000   1.0000   1.0000
     1.0000   1.0000   1.0000   1.0000   1.0000   1.0000   1.0000   1.0000
     1.0000   1.0000   1.0000   1.0000   1.0000   1.0000   1.0000   1.0000
     1.0000   1.0000   1.0000   1.0000   1.0000   1.0000   1.0000   1.0000
     1.0000   1.0000   1.0000   1.0000   1.0000   1.0000   1.0000   1.0000
     1.0000   1.0000   1.0000   1.0000   1.0000   1.0000   1.0000   1.0000
     1.0000   1.0000   1.0000   1.0000   1.0000   1.0000   1.0000   1.0000
     1.0000   1.0000   1.0000   1.0000   1.0000   1.0000   1.0000   1.0000
     1.0000   1.0000   1.0000   1.0000   1.0000   1.0000   1.0000   1.0000
     1.0000   1.0000   1.0000   1.0000   1.0000   1.0000   1.0000   1.0000
     1.0000   1.0000   1.0000   1.0000   1.0000   1.0000   1.0000   1.0000
     1.0000   1.0000   1.0000   1.0000   1.0000   1.0000   1.0000   1.0000
     1.0000   1.0000   1.0000   1.0000   1.0000   1.0000   1.0000   1.0000
     1.0000   1.0000   1.0000   1.0000   1.0000   1.0000   1.0000   1.0000
     1.0000   1.0000   1.0000   1.0000   1.0000   1.0000   1.0000   1.0000
     1.0000   1.0000   1.0000   1.0000   1.0000   1.0000   1.0000   1.0000
     1.0000   1.0000   1.0000   1.0000   1.0000   1.0000   1.0000   1.0000
     1.0000   1.0000   1.0000   1.0000   1.0000   1.0000   1.0000   1.0000
     1.0000   1.0000   1.0000   1.0000   1.0000   1.0000   1.0000   1.0000
     1.0000   1.0000   1.0000   1.0000   1.0000   1.0000   1.0000   1.0000
     1.0000   1.0000   1.0000   1.0000   1.0000   1.0000   1.0000   1.0000
     1.0000   1.0000   1.0000   1.0000   1.0000   1.0000   1.0000   1.0000
     1.0000   1.0000   1.0000   1.0000   1.0000   1.0000   1.0000   1.0000
     1.0000   1.0000   1.0000   1.0000   1.0000   1.0000   1.0000   1.0000
     1.0000   1.0000   1.0000   1.0000   1.0000   1.0000   1.0000   1.0000
     1.0000   1.0000   1.0000   1.0000   1.0000   1.0000   1.0000   1.0000
     1.0000   1.0000   1.0000   1.0000   1.0000   1.0000   1.0000   1.0000
     1.0000   1.0000   1.0000   1.0000   1.0000   1.0000   1.0000   1.0000
     1.0000   1.0000   1.0000   1.0000   1.0000   1.0000   1.0000   1.0000
     1.0000   1.0000   1.0000   1.0000   1.0000   1.0000   1.0000   1.0000
     1.0000   1.0000   1.0000   1.0000   1.0000   1.0000   1.0000   1.0000
     1.0000   1.0000   1.0000   1.0000   1.0000   1.0000   1.0000   1.0000
     1.0000   1.0000   1.0000   1.0000   1.0000   1.0000   1.0000   1.0000
     1.0000   1.0000   1.0000   1.0000   1.0000   1.0000   1.0000   1.0000
     1.0000   1.0000   1.0000   1.0000   1.0000   1.0000   1.0000   1.0000
     1.0000   1.0000   1.0000   1.0000   1.0000   1.0000   1.0000   1.0000
     1.0000   1.0000   1.0000   1.0000   1.0000   1.0000   1.0000   1.0000
     1.0000   1.0000   1.0000   1.0000   1.0000   1.0000   1.0000   1.0000
     1.0000   1.0000   1.0000   1.0000   1.0000   1.0000   1.0000   1.0000
     1.0000   1.0000   1.0000   1.0000   1.0000   1.0000   1.0000   1.0000
     1.0000   1.0000   1.0000   1.0000   1.0000   1.0000   1.0000   1.0000
     1.0000   1.0000   1.0000   1.0000   1.0000   1.0000   1.0000   1.0000
     1.0000   1.0000   1.0000   1.0000   1.0000   1.0000   1.0000   1.0000
     1.0000   1.0000   1.0000   1.0000   1.0000   1.0000   1.0000   1.0000
     1.0000   1.0000   1.0000   1.0000   1.0000   1.0000   1.0000   1.0000
     1.0000   1.0000   1.0000   1.0000   1.0000   1.0000   1.0000   1.0000
     1.0000   1.0000   1.0000   1.0000   1.0000   1.0000   1.0000   1.0000
     1.0000   1.0000   1.0000   1.0000   1.0000   1.0000   1.0000   1.0000
     1.0000   1.0000   1.0000   1.0000   1.0000   1.0000   1.0000   1.0000
     1.0000   1.0000   1.0000   1.0000   1.0000   1.0000   1.0000   1.0000
     1.0000   1.0000   1.0000   1.0000   1.0000   1.0000   1.0000   1.0000
     1.0000   1.0000   1.0000   1.0000   1.0000   1.0000   1.0000   1.0000
     1.0000   1.0000   1.0001   1.0001   1.0001   1.0001   1.0002   1.0002
     1.0004   1.0004   1.0005   1.0007   1.0008   1.0010   1.0013   1.0016
     1.0019   1.0023   1.0034   1.0047   1.0054   1.0070   1.0099   1.0116
     1.0139   1.0181   1.0191   1.0214   1.0251   1.0278   1.0329   1.0584
     1.0672   1.0760   1.0823   1.0818   1.0807   1.0778   1.0776   1.0120
     1.0089   0.9997   0.9602   0.9457   0.9078   0.8619   0.8546   0.8296
     0.8159   0.6797   0.5842   0.5627   0.4023   0.3952   0.1370   0.1170
     0.0367   0.0341   0.0041   0.0027   0.0002   0.0000   0.0000   0.0000
     0.0000   0.0000   0.0000   0.0000   0.0000   0.0000   0.0000   0.0000
     0.0000   0.0000   0.0000   0.0000   0.0000   0.0000   0.0000   0.0000
     0.0000   0.0000   0.0000   0.0000   0.0000   0.0000   0.0000   0.0000
     0.0000   0.0000   0.0000   0.0000   0.0000   0.0000   0.0000   0.0000
     0.0000   0.0000   0.0000   0.0000   0.0000   0.0000   0.0000   0.0000
     0.0000   0.0000   0.0000   0.0000   0.0000   0.0000   0.0000   0.0000
     0.0000   0.0000   0.0000   0.0000   0.0000   0.0000   0.0000   0.0000
     0.0000   0.0000   0.0000   0.0000   0.0000   0.0000   0.0000   0.0000
     0.0000   0.0000   0.0000   0.0000   0.0000   0.0000   0.0000   0.0000
     0.0000   0.0000   0.0000   0.0000   0.0000   0.0000   0.0000   0.0000
     0.0000   0.0000   0.0000   0.0000   0.0000   0.0000   0.0000   0.0000
     0.0000   0.0000   0.0000   0.0000   0.0000   0.0000   0.0000   0.0000
     0.0000   0.0000   0.0000   0.0000   0.0000   0.0000   0.0000   0.0000
     0.0000   0.0000   0.0000   0.0000   0.0000   0.0000   0.0000   0.0000
     0.0000   0.0000

          k = 0.3333 0.1925 0.0000 (319990 PWs)   bands (ev):

   -59.6503 -59.6460 -59.6447 -59.6097 -59.6085 -59.6079 -59.5903 -59.5880
   -59.5868 -59.5848 -59.5835 -59.5828 -59.5767 -59.5764 -59.5758 -59.5663
   -35.7903 -35.7901 -35.7867 -35.7671 -35.7583 -35.7521 -35.7516 -35.7373
   -35.7366 -35.7322 -35.7199 -35.7115 -35.6995 -35.6933 -35.6834 -35.6774
   -35.6764 -35.6753 -35.6677 -35.6612 -35.6601 -35.6564 -35.6511 -35.6436
   -35.6380 -35.6370 -35.6362 -35.6347 -35.6312 -35.6303 -35.6253 -35.6221
   -35.6202 -35.6150 -35.6137 -35.6126 -35.6107 -35.6077 -35.6072 -35.6029
   -35.6014 -35.5987 -35.5969 -35.5966 -35.5951 -35.5928 -35.5888 -35.5866
   -23.7530 -23.5899 -23.4335 -23.4260 -23.1514 -23.1457 -23.0244 -22.9065
   -22.9060 -22.6825 -22.5676 -22.5476 -22.4732 -22.4693 -22.4369 -22.4264
   -22.3762 -22.3748 -22.1889 -22.1831 -22.1688 -22.1634 -22.0760 -22.0140
   -22.0105 -21.9691 -21.9594 -21.9038 -21.8919 -21.8834 -21.8693 -21.8454
   -21.8145 -21.8079 -21.7857 -21.7516 -21.7419 -21.7210 -21.6926 -21.6853
   -21.6655 -21.6521 -21.6473 -21.5977 -21.5705 -21.5658 -21.5625 -21.4991
   -21.4895 -21.4728 -21.4617 -21.4581 -21.4471 -21.4359 -21.4234 -21.4024
   -21.4016 -21.3826 -21.3648 -21.3438 -21.3396 -21.3339 -21.3211 -21.2250
   -21.1851 -21.1837 -21.1413 -21.1389 -21.0732 -21.0723 -21.0158 -21.0136
   -20.9923 -20.9913 -20.9780 -20.9596 -20.9533 -20.9510 -20.9100 -20.8820
   -20.8718 -17.7781 -17.5882 -17.4207 -17.4105 -17.1346 -17.1274 -17.0152
   -16.9168 -16.9084 -16.8070 -16.7739 -16.7320 -16.7244 -16.7030 -16.6871
   -16.6552 -16.6503 -16.6434 -16.5690 -16.5667 -16.5286 -16.5274 -16.4801
   -16.4363 -16.4327 -16.3758 -16.3546 -16.3442 -16.3348 -16.3179 -16.2750
   -16.2739 -11.1092 -11.0494 -10.9877 -10.9818 -10.9785 -10.9162 -10.9130
   -10.7920 -10.7501 -10.7406 -10.7098 -10.6993 -10.6948 -10.6919 -10.6671
   -10.6066 -10.5845 -10.5781 -10.5503 -10.4804 -10.4654 -10.4018 -10.3701
   -10.3298 -10.2958 -10.2666 -10.2434 -10.2170 -10.2016 -10.1839 -10.1451
   -10.0985 -10.0651 -10.0515 -10.0069  -9.8889  -9.7848  -9.6934  -9.6790
    -9.6048  -9.5963  -9.5826  -9.5689  -9.5313  -9.4809  -9.3382  -9.3347
    -9.3131  -9.2869  -9.2643  -9.2535  -9.2398  -9.1995  -9.1815  -9.1363
    -9.1308  -9.0845  -9.0743  -9.0657  -9.0575  -9.0434  -9.0088  -8.9921
    -8.9845  -8.9687  -8.9554  -8.9217  -8.8924  -8.8681  -8.8529  -8.8331
    -8.7917  -8.7878  -8.7675  -8.7426  -8.7399  -8.7119  -8.6770  -8.6717
    -8.6654  -8.6132  -8.6011  -8.5895  -8.5705  -8.5560  -8.5166  -8.5036
    -8.4998  -8.4879  -8.4860  -8.4824  -8.4752  -8.4702  -8.4614  -8.4169
    -8.3638  -8.3031  -8.2864  -8.2735  -8.2609  -8.2458  -8.2336  -8.2285
    -8.1964  -8.1854  -8.1804  -8.1637  -8.1136  -8.1006  -8.0842  -8.0717
    -8.0663  -8.0437  -8.0401  -8.0143  -7.9680  -7.9587  -7.9413  -7.9313
    -7.8806  -7.8748  -7.8615  -7.8425  -7.8357  -7.8209  -7.8132  -7.8077
    -7.7964  -7.7820  -7.7651  -7.7322  -7.7300  -7.7162  -7.7048  -7.6873
    -7.6601  -7.6458  -7.6322  -7.6136  -7.6085  -7.5978  -7.5899  -7.5862
    -7.5662  -7.5596  -7.4926  -7.4407  -7.4252  -7.4101  -7.4009  -7.3932
    -7.3634  -7.3327  -7.3133  -7.2948  -7.2891  -7.2703  -7.2627  -7.2449
    -7.2335  -7.2297  -7.2080  -7.1979  -7.1660  -7.1617  -7.1416  -7.1218
    -7.1010  -7.0868  -7.0716  -7.0508  -7.0455  -7.0301  -6.9735  -6.9643
    -6.9551  -6.9529  -6.9410  -6.9292  -6.9159  -6.9133  -6.9036  -6.8955
    -6.8830  -6.8674  -6.8544  -6.8517  -6.8428  -6.8363  -6.8298  -6.8204
    -6.8133  -6.8034  -6.7984  -6.7824  -6.7764  -6.7644  -6.7493  -6.7199
    -6.7094  -6.6892  -6.6749  -6.6636  -6.6432  -6.6333  -6.6302  -6.6114
    -6.6077  -6.5683  -6.5576  -6.5489  -6.5231  -6.5076  -6.4968  -6.4917
    -6.4629  -6.4486  -6.4465  -6.4414  -6.4217  -6.4157  -6.4126  -6.3917
    -6.3895  -6.3790  -6.3614  -6.3482  -6.3173  -6.2974  -6.2911  -6.2855
    -6.2739  -6.2583  -6.2400  -6.2320  -6.2288  -6.2104  -6.1980  -6.1908
    -6.1749  -6.1559  -6.1361  -6.1187  -6.1110  -6.0864  -6.0750  -6.0697
    -6.0601  -6.0498  -6.0475  -6.0372  -6.0240  -6.0139  -5.9982  -5.9920
    -5.9671  -5.9553  -5.9453  -5.9391  -5.9344  -5.9285  -5.9206  -5.9086
    -5.8998  -5.8908  -5.8859  -5.8579  -5.8536  -5.8291  -5.8170  -5.7929
    -5.7674  -5.7593  -5.7390  -5.7197  -5.7101  -5.7034  -5.6905  -5.6607
    -5.6464  -5.6386  -5.6309  -5.6271  -5.6159  -5.6002  -5.5942  -5.5804
    -5.5690  -5.5584  -5.5333  -5.5003  -5.4703  -5.4620  -5.4591  -5.4507
    -5.4338  -5.4179  -5.3916  -5.3788  -5.3687  -5.3529  -5.3412  -5.3210
    -5.2931  -5.2861  -5.2773  -5.2618  -5.2513  -5.2397  -5.2258  -5.2106
    -5.2016  -5.1891  -5.1635  -5.1400  -5.1304  -5.1109  -5.0845  -5.0714
    -5.0557  -5.0322  -5.0273  -5.0163  -5.0005  -4.9896  -4.9714  -4.8934
    -4.8673  -4.8366  -4.8024  -4.7637  -4.7574  -4.7462  -4.7454  -4.6600
    -4.6571  -4.6502  -4.6246  -4.6168  -4.5966  -4.5751  -4.5720  -4.5610
    -4.5552  -4.5030  -4.4683  -4.4609  -4.3999  -4.3975  -4.2639  -4.2474
    -4.1448  -4.1388  -3.9936  -3.9681  -3.8293  -3.7484  -3.7479  -3.6535
    -3.6344  -3.6340  -3.6065  -3.5773  -3.5770  -2.5937  -2.5875  -2.2582
    -2.2318  -2.2153  -2.2009  -2.1975  -2.1598  -2.1535  -2.1216  -2.1043
    -2.0933  -2.0591  -2.0462  -1.9628  -1.9557  -1.9425  -1.9265  -1.9239
    -1.9117  -1.8928  -1.8865  -1.8715  -1.8547  -1.8448  -1.8282  -1.8126
    -1.8057  -1.8021  -1.7386  -1.7338  -1.7258  -1.6272  -1.5810  -1.5780
    -1.5345  -1.5269  -1.4781  -1.4749  -1.3183  -1.3037  -1.2928  -1.2564
    -1.1754  -1.0859  -1.0757  -1.0264  -1.0087  -1.0073  -0.8958  -0.8376
    -0.8351  -0.8057  -0.7986  -0.7581  -0.7577  -0.5031  -0.4957  -0.4579
    -0.4130  -0.4054  -0.4042  -0.3797  -0.3512  -0.3339  -0.2995  -0.2698
    -0.2542  -0.2449  -0.2367  -0.2286  -0.2130  -0.1902  -0.1893  -0.0140
     0.1232   0.1236   0.2843   0.2859   0.3048   0.4438   0.6155   0.6219
     0.8104   0.8665   0.8722   0.9176   0.9498   0.9822   1.0037   1.0164
     1.0511   1.1068   1.1523   1.1556   1.1623   1.2174   1.2698   1.2884
     1.3652   1.4456   1.4649   1.4729   1.5247   1.5338   1.6197   1.6229
     1.6420   1.6457

     occupation numbers 
     1.0000   1.0000   1.0000   1.0000   1.0000   1.0000   1.0000   1.0000
     1.0000   1.0000   1.0000   1.0000   1.0000   1.0000   1.0000   1.0000
     1.0000   1.0000   1.0000   1.0000   1.0000   1.0000   1.0000   1.0000
     1.0000   1.0000   1.0000   1.0000   1.0000   1.0000   1.0000   1.0000
     1.0000   1.0000   1.0000   1.0000   1.0000   1.0000   1.0000   1.0000
     1.0000   1.0000   1.0000   1.0000   1.0000   1.0000   1.0000   1.0000
     1.0000   1.0000   1.0000   1.0000   1.0000   1.0000   1.0000   1.0000
     1.0000   1.0000   1.0000   1.0000   1.0000   1.0000   1.0000   1.0000
     1.0000   1.0000   1.0000   1.0000   1.0000   1.0000   1.0000   1.0000
     1.0000   1.0000   1.0000   1.0000   1.0000   1.0000   1.0000   1.0000
     1.0000   1.0000   1.0000   1.0000   1.0000   1.0000   1.0000   1.0000
     1.0000   1.0000   1.0000   1.0000   1.0000   1.0000   1.0000   1.0000
     1.0000   1.0000   1.0000   1.0000   1.0000   1.0000   1.0000   1.0000
     1.0000   1.0000   1.0000   1.0000   1.0000   1.0000   1.0000   1.0000
     1.0000   1.0000   1.0000   1.0000   1.0000   1.0000   1.0000   1.0000
     1.0000   1.0000   1.0000   1.0000   1.0000   1.0000   1.0000   1.0000
     1.0000   1.0000   1.0000   1.0000   1.0000   1.0000   1.0000   1.0000
     1.0000   1.0000   1.0000   1.0000   1.0000   1.0000   1.0000   1.0000
     1.0000   1.0000   1.0000   1.0000   1.0000   1.0000   1.0000   1.0000
     1.0000   1.0000   1.0000   1.0000   1.0000   1.0000   1.0000   1.0000
     1.0000   1.0000   1.0000   1.0000   1.0000   1.0000   1.0000   1.0000
     1.0000   1.0000   1.0000   1.0000   1.0000   1.0000   1.0000   1.0000
     1.0000   1.0000   1.0000   1.0000   1.0000   1.0000   1.0000   1.0000
     1.0000   1.0000   1.0000   1.0000   1.0000   1.0000   1.0000   1.0000
     1.0000   1.0000   1.0000   1.0000   1.0000   1.0000   1.0000   1.0000
     1.0000   1.0000   1.0000   1.0000   1.0000   1.0000   1.0000   1.0000
     1.0000   1.0000   1.0000   1.0000   1.0000   1.0000   1.0000   1.0000
     1.0000   1.0000   1.0000   1.0000   1.0000   1.0000   1.0000   1.0000
     1.0000   1.0000   1.0000   1.0000   1.0000   1.0000   1.0000   1.0000
     1.0000   1.0000   1.0000   1.0000   1.0000   1.0000   1.0000   1.0000
     1.0000   1.0000   1.0000   1.0000   1.0000   1.0000   1.0000   1.0000
     1.0000   1.0000   1.0000   1.0000   1.0000   1.0000   1.0000   1.0000
     1.0000   1.0000   1.0000   1.0000   1.0000   1.0000   1.0000   1.0000
     1.0000   1.0000   1.0000   1.0000   1.0000   1.0000   1.0000   1.0000
     1.0000   1.0000   1.0000   1.0000   1.0000   1.0000   1.0000   1.0000
     1.0000   1.0000   1.0000   1.0000   1.0000   1.0000   1.0000   1.0000
     1.0000   1.0000   1.0000   1.0000   1.0000   1.0000   1.0000   1.0000
     1.0000   1.0000   1.0000   1.0000   1.0000   1.0000   1.0000   1.0000
     1.0000   1.0000   1.0000   1.0000   1.0000   1.0000   1.0000   1.0000
     1.0000   1.0000   1.0000   1.0000   1.0000   1.0000   1.0000   1.0000
     1.0000   1.0000   1.0000   1.0000   1.0000   1.0000   1.0000   1.0000
     1.0000   1.0000   1.0000   1.0000   1.0000   1.0000   1.0000   1.0000
     1.0000   1.0000   1.0000   1.0000   1.0000   1.0000   1.0000   1.0000
     1.0000   1.0000   1.0000   1.0000   1.0000   1.0000   1.0000   1.0000
     1.0000   1.0000   1.0000   1.0000   1.0000   1.0000   1.0000   1.0000
     1.0000   1.0000   1.0000   1.0000   1.0000   1.0000   1.0000   1.0000
     1.0000   1.0000   1.0000   1.0000   1.0000   1.0000   1.0000   1.0000
     1.0000   1.0000   1.0000   1.0000   1.0000   1.0000   1.0000   1.0000
     1.0000   1.0000   1.0000   1.0000   1.0000   1.0000   1.0000   1.0000
     1.0000   1.0000   1.0000   1.0000   1.0000   1.0000   1.0000   1.0000
     1.0000   1.0000   1.0000   1.0000   1.0000   1.0000   1.0000   1.0000
     1.0000   1.0000   1.0000   1.0000   1.0000   1.0000   1.0000   1.0000
     1.0000   1.0000   1.0000   1.0000   1.0000   1.0000   1.0000   1.0000
     1.0000   1.0000   1.0000   1.0000   1.0000   1.0000   1.0000   1.0000
     1.0000   1.0000   1.0000   1.0000   1.0000   1.0000   1.0000   1.0000
     1.0000   1.0000   1.0000   1.0000   1.0000   1.0000   1.0000   1.0000
     1.0000   1.0000   1.0000   1.0000   1.0000   1.0000   1.0000   1.0000
     1.0000   1.0000   1.0000   1.0000   1.0000   1.0000   1.0000   1.0000
     1.0000   1.0000   1.0000   1.0000   1.0000   1.0000   1.0000   1.0000
     1.0000   1.0000   1.0001   1.0001   1.0001   1.0001   1.0002   1.0002
     1.0004   1.0004   1.0005   1.0007   1.0008   1.0010   1.0013   1.0016
     1.0019   1.0023   1.0034   1.0047   1.0054   1.0070   1.0099   1.0116
     1.0139   1.0181   1.0191   1.0214   1.0251   1.0278   1.0328   1.0584
     1.0672   1.0760   1.0823   1.0818   1.0807   1.0779   1.0776   1.0126
     1.0089   0.9997   0.9602   0.9465   0.9079   0.8620   0.8548   0.8293
     0.8154   0.6797   0.5841   0.5636   0.4008   0.3948   0.1370   0.1167
     0.0368   0.0341   0.0041   0.0027   0.0002   0.0000   0.0000   0.0000
     0.0000   0.0000   0.0000   0.0000   0.0000   0.0000   0.0000   0.0000
     0.0000   0.0000   0.0000   0.0000   0.0000   0.0000   0.0000   0.0000
     0.0000   0.0000   0.0000   0.0000   0.0000   0.0000   0.0000   0.0000
     0.0000   0.0000   0.0000   0.0000   0.0000   0.0000   0.0000   0.0000
     0.0000   0.0000   0.0000   0.0000   0.0000   0.0000   0.0000   0.0000
     0.0000   0.0000   0.0000   0.0000   0.0000   0.0000   0.0000   0.0000
     0.0000   0.0000   0.0000   0.0000   0.0000   0.0000   0.0000   0.0000
     0.0000   0.0000   0.0000   0.0000   0.0000   0.0000   0.0000   0.0000
     0.0000   0.0000   0.0000   0.0000   0.0000   0.0000   0.0000   0.0000
     0.0000   0.0000   0.0000   0.0000   0.0000   0.0000   0.0000   0.0000
     0.0000   0.0000   0.0000   0.0000   0.0000   0.0000   0.0000   0.0000
     0.0000   0.0000   0.0000   0.0000   0.0000   0.0000   0.0000   0.0000
     0.0000   0.0000   0.0000   0.0000   0.0000   0.0000   0.0000   0.0000
     0.0000   0.0000   0.0000   0.0000   0.0000   0.0000   0.0000   0.0000
     0.0000   0.0000

          k = 0.3333 0.5774 0.0000 (319908 PWs)   bands (ev):

   -59.6503 -59.6460 -59.6447 -59.6097 -59.6085 -59.6079 -59.5902 -59.5883
   -59.5868 -59.5843 -59.5836 -59.5829 -59.5768 -59.5764 -59.5757 -59.5663
   -35.7874 -35.7871 -35.7839 -35.7686 -35.7552 -35.7532 -35.7500 -35.7477
   -35.7431 -35.7347 -35.7171 -35.7092 -35.7034 -35.6991 -35.6862 -35.6841
   -35.6753 -35.6659 -35.6616 -35.6609 -35.6599 -35.6493 -35.6488 -35.6402
   -35.6388 -35.6364 -35.6322 -35.6316 -35.6307 -35.6289 -35.6272 -35.6229
   -35.6211 -35.6176 -35.6143 -35.6136 -35.6122 -35.6105 -35.6070 -35.6033
   -35.6012 -35.5998 -35.5985 -35.5958 -35.5951 -35.5922 -35.5896 -35.5886
   -23.6632 -23.6555 -23.6046 -23.1971 -23.1916 -23.1835 -22.9204 -22.9191
   -22.8846 -22.6458 -22.6238 -22.6209 -22.6130 -22.5892 -22.5563 -22.2986
   -22.2923 -22.2683 -22.1704 -22.1610 -22.1420 -22.0343 -22.0208 -22.0151
   -21.9914 -21.9901 -21.9816 -21.9497 -21.9400 -21.9252 -21.8469 -21.8453
   -21.8429 -21.8297 -21.8263 -21.8186 -21.7089 -21.7029 -21.7010 -21.6997
   -21.6679 -21.6632 -21.6166 -21.6159 -21.5836 -21.5218 -21.5104 -21.5050
   -21.4953 -21.4834 -21.4763 -21.4651 -21.4589 -21.4402 -21.4052 -21.3810
   -21.3777 -21.3677 -21.3512 -21.3467 -21.3259 -21.3158 -21.3111 -21.2756
   -21.2674 -21.2609 -21.0826 -21.0812 -21.0751 -21.0309 -21.0253 -21.0248
   -21.0074 -21.0059 -21.0056 -20.9302 -20.9267 -20.9258 -20.9068 -20.9037
   -20.9021 -17.6707 -17.6397 -17.6358 -17.1745 -17.1687 -17.1682 -16.9147
   -16.8828 -16.8811 -16.8296 -16.8284 -16.8142 -16.7698 -16.7427 -16.7369
   -16.6618 -16.5973 -16.5905 -16.5451 -16.5429 -16.5412 -16.5274 -16.4394
   -16.4295 -16.4287 -16.3973 -16.3917 -16.3862 -16.3219 -16.2919 -16.2886
   -16.2542 -11.0193 -11.0187 -11.0148 -10.9865 -10.9803 -10.9515 -10.7528
   -10.7469 -10.7397 -10.7359 -10.7314 -10.7238 -10.7156 -10.7122 -10.7107
   -10.6961 -10.6756 -10.6732 -10.4618 -10.4616 -10.4306 -10.3689 -10.3622
   -10.3425 -10.2694 -10.2625 -10.2589 -10.2427 -10.2424 -10.2277 -10.2169
   -10.2086 -10.1938  -9.9078  -9.9065  -9.9023  -9.7527  -9.7466  -9.7420
    -9.5824  -9.5801  -9.5652  -9.4995  -9.4883  -9.4828  -9.2847  -9.2783
    -9.2635  -9.2551  -9.2546  -9.2426  -9.1131  -9.1056  -9.1039  -9.0977
    -9.0954  -9.0870  -9.0853  -9.0812  -9.0704  -9.0441  -9.0432  -9.0375
    -8.9597  -8.9534  -8.9519  -8.8986  -8.8836  -8.8772  -8.8584  -8.8484
    -8.8484  -8.7941  -8.7914  -8.7738  -8.7730  -8.7643  -8.7551  -8.6395
    -8.6394  -8.6324  -8.6223  -8.6213  -8.6141  -8.6021  -8.5356  -8.5355
    -8.5328  -8.5190  -8.5170  -8.5158  -8.5043  -8.5027  -8.4971  -8.4009
    -8.3960  -8.3718  -8.3520  -8.3474  -8.3185  -8.2314  -8.1764  -8.1617
    -8.1424  -8.1407  -8.1366  -8.1253  -8.0699  -8.0399  -8.0368  -8.0204
    -8.0161  -8.0132  -7.9715  -7.9636  -7.9513  -7.9335  -7.9293  -7.9242
    -7.8994  -7.8971  -7.8923  -7.8803  -7.8719  -7.8609  -7.8439  -7.8428
    -7.8301  -7.8206  -7.8201  -7.8029  -7.7648  -7.7411  -7.7045  -7.6733
    -7.6576  -7.6431  -7.6396  -7.5847  -7.5697  -7.5660  -7.5535  -7.5514
    -7.5227  -7.4854  -7.4836  -7.4780  -7.4697  -7.3691  -7.3612  -7.3495
    -7.3399  -7.3392  -7.3298  -7.3250  -7.3197  -7.3152  -7.3064  -7.3031
    -7.2989  -7.2457  -7.2386  -7.2323  -7.1574  -7.1565  -7.1468  -7.0938
    -7.0795  -7.0476  -7.0465  -7.0424  -7.0383  -7.0311  -7.0283  -7.0266
    -6.9883  -6.9873  -6.9781  -6.9170  -6.9155  -6.9146  -6.9058  -6.8963
    -6.8819  -6.8673  -6.8607  -6.8572  -6.8327  -6.8253  -6.8147  -6.8034
    -6.8025  -6.8005  -6.7803  -6.7733  -6.7642  -6.7397  -6.7392  -6.7377
    -6.7218  -6.7008  -6.6972  -6.6846  -6.6823  -6.6785  -6.6597  -6.5856
    -6.5743  -6.5506  -6.5468  -6.5388  -6.5252  -6.4874  -6.4828  -6.4802
    -6.4619  -6.4490  -6.4434  -6.4055  -6.4017  -6.3893  -6.3700  -6.3596
    -6.3528  -6.3484  -6.3459  -6.3398  -6.2808  -6.2730  -6.2667  -6.2565
    -6.2461  -6.2441  -6.2300  -6.2222  -6.2151  -6.1959  -6.1847  -6.1841
    -6.1030  -6.0908  -6.0900  -6.0899  -6.0692  -6.0687  -6.0655  -6.0549
    -6.0547  -6.0545  -6.0400  -6.0356  -6.0174  -6.0047  -6.0027  -5.9952
    -5.9945  -5.9829  -5.9398  -5.9318  -5.9205  -5.9001  -5.8990  -5.8761
    -5.8746  -5.8635  -5.8510  -5.8507  -5.8293  -5.8257  -5.8146  -5.8031
    -5.7989  -5.7931  -5.7763  -5.7655  -5.7572  -5.7480  -5.7292  -5.7250
    -5.7189  -5.7150  -5.7035  -5.6628  -5.6438  -5.6284  -5.6183  -5.6149
    -5.5895  -5.5772  -5.5595  -5.5556  -5.5250  -5.4711  -5.4669  -5.4541
    -5.4420  -5.4354  -5.4111  -5.4088  -5.3817  -5.3477  -5.3435  -5.3355
    -5.2962  -5.2857  -5.2836  -5.2562  -5.2422  -5.2415  -5.2160  -5.2030
    -5.1985  -5.1687  -5.1553  -5.1532  -5.1287  -5.1172  -5.1091  -5.0368
    -5.0342  -5.0315  -5.0037  -4.9689  -4.9458  -4.9323  -4.9225  -4.9165
    -4.8064  -4.7956  -4.7908  -4.7846  -4.7808  -4.7705  -4.7161  -4.7160
    -4.7090  -4.6181  -4.6092  -4.6079  -4.5934  -4.5834  -4.5768  -4.5573
    -4.5533  -4.5525  -4.5157  -4.5142  -4.5132  -4.2869  -4.2763  -4.2616
    -3.9657  -3.9381  -3.9099  -3.9068  -3.8423  -3.8364  -3.8188  -3.6496
    -3.6491  -3.6434  -3.5878  -3.5869  -3.5805  -2.8278  -2.4012  -2.3760
    -2.3575  -2.2318  -2.2194  -2.2050  -2.1791  -2.1669  -2.1557  -2.1278
    -2.1208  -2.1058  -2.0067  -1.9982  -1.9764  -1.9460  -1.9263  -1.9143
    -1.9072  -1.8905  -1.8724  -1.8581  -1.8541  -1.8488  -1.8394  -1.8357
    -1.8020  -1.8018  -1.7910  -1.7790  -1.6985  -1.6705  -1.6616  -1.5769
    -1.5224  -1.5170  -1.2669  -1.2655  -1.2583  -1.2467  -1.2299  -1.1860
    -1.1219  -1.1219  -1.1206  -1.0951  -1.0781  -1.0691  -1.0461  -1.0031
    -0.8842  -0.8278  -0.8099  -0.5186  -0.4705  -0.4503  -0.4084  -0.4082
    -0.4079  -0.4056  -0.4011  -0.3699  -0.3527  -0.3495  -0.3481  -0.3477
    -0.3382  -0.3319  -0.3078  -0.2996  -0.2829  -0.1930  -0.0786  -0.0785
    -0.0769   0.3035   0.3042   0.3045   0.7123   0.7123   0.7127   0.7645
     0.7646   0.7754   0.9615   1.0040   1.0779   1.0788   1.0789   1.1105
     1.1146   1.1155   1.1454   1.1540   1.1834   1.2306   1.2386   1.2545
     1.2722   1.2757   1.2758   1.2766   1.3021   1.3574   1.3584   1.3594
     1.5033   1.5922

     occupation numbers 
     1.0000   1.0000   1.0000   1.0000   1.0000   1.0000   1.0000   1.0000
     1.0000   1.0000   1.0000   1.0000   1.0000   1.0000   1.0000   1.0000
     1.0000   1.0000   1.0000   1.0000   1.0000   1.0000   1.0000   1.0000
     1.0000   1.0000   1.0000   1.0000   1.0000   1.0000   1.0000   1.0000
     1.0000   1.0000   1.0000   1.0000   1.0000   1.0000   1.0000   1.0000
     1.0000   1.0000   1.0000   1.0000   1.0000   1.0000   1.0000   1.0000
     1.0000   1.0000   1.0000   1.0000   1.0000   1.0000   1.0000   1.0000
     1.0000   1.0000   1.0000   1.0000   1.0000   1.0000   1.0000   1.0000
     1.0000   1.0000   1.0000   1.0000   1.0000   1.0000   1.0000   1.0000
     1.0000   1.0000   1.0000   1.0000   1.0000   1.0000   1.0000   1.0000
     1.0000   1.0000   1.0000   1.0000   1.0000   1.0000   1.0000   1.0000
     1.0000   1.0000   1.0000   1.0000   1.0000   1.0000   1.0000   1.0000
     1.0000   1.0000   1.0000   1.0000   1.0000   1.0000   1.0000   1.0000
     1.0000   1.0000   1.0000   1.0000   1.0000   1.0000   1.0000   1.0000
     1.0000   1.0000   1.0000   1.0000   1.0000   1.0000   1.0000   1.0000
     1.0000   1.0000   1.0000   1.0000   1.0000   1.0000   1.0000   1.0000
     1.0000   1.0000   1.0000   1.0000   1.0000   1.0000   1.0000   1.0000
     1.0000   1.0000   1.0000   1.0000   1.0000   1.0000   1.0000   1.0000
     1.0000   1.0000   1.0000   1.0000   1.0000   1.0000   1.0000   1.0000
     1.0000   1.0000   1.0000   1.0000   1.0000   1.0000   1.0000   1.0000
     1.0000   1.0000   1.0000   1.0000   1.0000   1.0000   1.0000   1.0000
     1.0000   1.0000   1.0000   1.0000   1.0000   1.0000   1.0000   1.0000
     1.0000   1.0000   1.0000   1.0000   1.0000   1.0000   1.0000   1.0000
     1.0000   1.0000   1.0000   1.0000   1.0000   1.0000   1.0000   1.0000
     1.0000   1.0000   1.0000   1.0000   1.0000   1.0000   1.0000   1.0000
     1.0000   1.0000   1.0000   1.0000   1.0000   1.0000   1.0000   1.0000
     1.0000   1.0000   1.0000   1.0000   1.0000   1.0000   1.0000   1.0000
     1.0000   1.0000   1.0000   1.0000   1.0000   1.0000   1.0000   1.0000
     1.0000   1.0000   1.0000   1.0000   1.0000   1.0000   1.0000   1.0000
     1.0000   1.0000   1.0000   1.0000   1.0000   1.0000   1.0000   1.0000
     1.0000   1.0000   1.0000   1.0000   1.0000   1.0000   1.0000   1.0000
     1.0000   1.0000   1.0000   1.0000   1.0000   1.0000   1.0000   1.0000
     1.0000   1.0000   1.0000   1.0000   1.0000   1.0000   1.0000   1.0000
     1.0000   1.0000   1.0000   1.0000   1.0000   1.0000   1.0000   1.0000
     1.0000   1.0000   1.0000   1.0000   1.0000   1.0000   1.0000   1.0000
     1.0000   1.0000   1.0000   1.0000   1.0000   1.0000   1.0000   1.0000
     1.0000   1.0000   1.0000   1.0000   1.0000   1.0000   1.0000   1.0000
     1.0000   1.0000   1.0000   1.0000   1.0000   1.0000   1.0000   1.0000
     1.0000   1.0000   1.0000   1.0000   1.0000   1.0000   1.0000   1.0000
     1.0000   1.0000   1.0000   1.0000   1.0000   1.0000   1.0000   1.0000
     1.0000   1.0000   1.0000   1.0000   1.0000   1.0000   1.0000   1.0000
     1.0000   1.0000   1.0000   1.0000   1.0000   1.0000   1.0000   1.0000
     1.0000   1.0000   1.0000   1.0000   1.0000   1.0000   1.0000   1.0000
     1.0000   1.0000   1.0000   1.0000   1.0000   1.0000   1.0000   1.0000
     1.0000   1.0000   1.0000   1.0000   1.0000   1.0000   1.0000   1.0000
     1.0000   1.0000   1.0000   1.0000   1.0000   1.0000   1.0000   1.0000
     1.0000   1.0000   1.0000   1.0000   1.0000   1.0000   1.0000   1.0000
     1.0000   1.0000   1.0000   1.0000   1.0000   1.0000   1.0000   1.0000
     1.0000   1.0000   1.0000   1.0000   1.0000   1.0000   1.0000   1.0000
     1.0000   1.0000   1.0000   1.0000   1.0000   1.0000   1.0000   1.0000
     1.0000   1.0000   1.0000   1.0000   1.0000   1.0000   1.0000   1.0000
     1.0000   1.0000   1.0000   1.0000   1.0000   1.0000   1.0000   1.0000
     1.0000   1.0000   1.0000   1.0000   1.0000   1.0000   1.0000   1.0000
     1.0000   1.0000   1.0000   1.0000   1.0000   1.0000   1.0000   1.0000
     1.0000   1.0000   1.0000   1.0000   1.0000   1.0000   1.0000   1.0000
     1.0000   1.0000   1.0000   1.0000   1.0000   1.0000   1.0000   1.0000
     1.0000   1.0000   1.0000   1.0000   1.0000   1.0000   1.0000   1.0000
     1.0000   1.0000   1.0000   1.0000   1.0000   1.0000   1.0000   1.0000
     1.0000   1.0000   1.0000   1.0000   1.0000   1.0000   1.0000   1.0000
     1.0000   1.0000   1.0000   1.0000   1.0001   1.0001   1.0001   1.0002
     1.0004   1.0004   1.0005   1.0008   1.0010   1.0010   1.0015   1.0018
     1.0020   1.0031   1.0038   1.0039   1.0055   1.0065   1.0072   1.0172
     1.0177   1.0182   1.0243   1.0336   1.0407   1.0451   1.0484   1.0504
     1.0819   1.0829   1.0832   1.0833   1.0833   1.0826   1.0644   1.0643
     1.0599   0.9488   0.9326   0.9300   0.9013   0.8802   0.8657   0.8205
     0.8108   0.8087   0.7140   0.7099   0.7073   0.1695   0.1539   0.1341
     0.0026   0.0016   0.0009   0.0009   0.0002   0.0002   0.0002   0.0000
     0.0000   0.0000   0.0000   0.0000   0.0000   0.0000   0.0000   0.0000
     0.0000   0.0000   0.0000   0.0000   0.0000   0.0000   0.0000   0.0000
     0.0000   0.0000   0.0000   0.0000   0.0000   0.0000   0.0000   0.0000
     0.0000   0.0000   0.0000   0.0000   0.0000   0.0000   0.0000   0.0000
     0.0000   0.0000   0.0000   0.0000   0.0000   0.0000   0.0000   0.0000
     0.0000   0.0000   0.0000   0.0000   0.0000   0.0000   0.0000   0.0000
     0.0000   0.0000   0.0000   0.0000   0.0000   0.0000   0.0000   0.0000
     0.0000   0.0000   0.0000   0.0000   0.0000   0.0000   0.0000   0.0000
     0.0000   0.0000   0.0000   0.0000   0.0000   0.0000   0.0000   0.0000
     0.0000   0.0000   0.0000   0.0000   0.0000   0.0000   0.0000   0.0000
     0.0000   0.0000   0.0000   0.0000   0.0000   0.0000   0.0000   0.0000
     0.0000   0.0000   0.0000   0.0000   0.0000   0.0000   0.0000   0.0000
     0.0000   0.0000   0.0000   0.0000   0.0000   0.0000   0.0000   0.0000
     0.0000   0.0000   0.0000   0.0000   0.0000   0.0000   0.0000   0.0000
     0.0000   0.0000

          k = 0.3333-0.1925 0.0000 (319990 PWs)   bands (ev):

   -59.6503 -59.6460 -59.6447 -59.6097 -59.6085 -59.6079 -59.5903 -59.5878
   -59.5871 -59.5847 -59.5833 -59.5830 -59.5768 -59.5763 -59.5758 -59.5663
   -35.7903 -35.7901 -35.7868 -35.7671 -35.7582 -35.7521 -35.7517 -35.7374
   -35.7364 -35.7322 -35.7199 -35.7115 -35.6995 -35.6933 -35.6834 -35.6774
   -35.6764 -35.6753 -35.6678 -35.6612 -35.6601 -35.6565 -35.6510 -35.6436
   -35.6382 -35.6369 -35.6359 -35.6348 -35.6314 -35.6302 -35.6253 -35.6220
   -35.6203 -35.6150 -35.6137 -35.6126 -35.6108 -35.6076 -35.6071 -35.6029
   -35.6015 -35.5988 -35.5967 -35.5965 -35.5953 -35.5929 -35.5887 -35.5866
   -23.7530 -23.5899 -23.4335 -23.4260 -23.1514 -23.1457 -23.0244 -22.9065
   -22.9060 -22.6825 -22.5676 -22.5476 -22.4733 -22.4693 -22.4369 -22.4264
   -22.3762 -22.3748 -22.1889 -22.1831 -22.1689 -22.1634 -22.0760 -22.0140
   -22.0105 -21.9691 -21.9595 -21.9038 -21.8918 -21.8835 -21.8693 -21.8454
   -21.8145 -21.8079 -21.7857 -21.7517 -21.7419 -21.7210 -21.6926 -21.6853
   -21.6654 -21.6522 -21.6473 -21.5977 -21.5705 -21.5658 -21.5625 -21.4991
   -21.4895 -21.4728 -21.4618 -21.4582 -21.4470 -21.4358 -21.4235 -21.4024
   -21.4016 -21.3826 -21.3648 -21.3438 -21.3395 -21.3339 -21.3212 -21.2250
   -21.1851 -21.1837 -21.1413 -21.1389 -21.0732 -21.0723 -21.0158 -21.0136
   -20.9923 -20.9913 -20.9780 -20.9596 -20.9533 -20.9510 -20.9100 -20.8820
   -20.8718 -17.7781 -17.5882 -17.4207 -17.4105 -17.1349 -17.1271 -17.0152
   -16.9170 -16.9081 -16.8070 -16.7739 -16.7320 -16.7244 -16.7030 -16.6871
   -16.6553 -16.6501 -16.6436 -16.5692 -16.5665 -16.5286 -16.5273 -16.4801
   -16.4362 -16.4327 -16.3759 -16.3546 -16.3443 -16.3348 -16.3178 -16.2751
   -16.2738 -11.1092 -11.0494 -10.9877 -10.9818 -10.9785 -10.9162 -10.9130
   -10.7920 -10.7501 -10.7406 -10.7098 -10.6993 -10.6948 -10.6919 -10.6671
   -10.6066 -10.5845 -10.5781 -10.5503 -10.4804 -10.4654 -10.4018 -10.3701
   -10.3298 -10.2958 -10.2666 -10.2435 -10.2170 -10.2016 -10.1839 -10.1452
   -10.0985 -10.0651 -10.0515 -10.0069  -9.8889  -9.7848  -9.6934  -9.6790
    -9.6048  -9.5963  -9.5827  -9.5689  -9.5313  -9.4809  -9.3382  -9.3347
    -9.3131  -9.2869  -9.2643  -9.2534  -9.2398  -9.1995  -9.1816  -9.1363
    -9.1308  -9.0844  -9.0742  -9.0657  -9.0576  -9.0434  -9.0089  -8.9921
    -8.9845  -8.9686  -8.9554  -8.9218  -8.8925  -8.8681  -8.8529  -8.8331
    -8.7916  -8.7879  -8.7675  -8.7426  -8.7398  -8.7119  -8.6770  -8.6715
    -8.6656  -8.6132  -8.6010  -8.5895  -8.5705  -8.5559  -8.5166  -8.5036
    -8.4997  -8.4882  -8.4859  -8.4822  -8.4753  -8.4703  -8.4614  -8.4169
    -8.3638  -8.3031  -8.2865  -8.2736  -8.2608  -8.2458  -8.2336  -8.2284
    -8.1965  -8.1854  -8.1803  -8.1637  -8.1136  -8.1006  -8.0843  -8.0715
    -8.0663  -8.0438  -8.0401  -8.0143  -7.9680  -7.9587  -7.9412  -7.9313
    -7.8807  -7.8747  -7.8616  -7.8425  -7.8357  -7.8207  -7.8133  -7.8077
    -7.7964  -7.7820  -7.7651  -7.7323  -7.7300  -7.7161  -7.7049  -7.6873
    -7.6602  -7.6458  -7.6321  -7.6136  -7.6086  -7.5977  -7.5898  -7.5862
    -7.5662  -7.5597  -7.4926  -7.4407  -7.4252  -7.4101  -7.4009  -7.3933
    -7.3634  -7.3327  -7.3133  -7.2948  -7.2891  -7.2703  -7.2627  -7.2449
    -7.2335  -7.2297  -7.2079  -7.1979  -7.1661  -7.1618  -7.1416  -7.1219
    -7.1011  -7.0868  -7.0715  -7.0508  -7.0455  -7.0301  -6.9735  -6.9644
    -6.9550  -6.9527  -6.9409  -6.9291  -6.9160  -6.9131  -6.9035  -6.8958
    -6.8829  -6.8673  -6.8544  -6.8518  -6.8428  -6.8364  -6.8297  -6.8206
    -6.8134  -6.8034  -6.7985  -6.7824  -6.7764  -6.7642  -6.7493  -6.7199
    -6.7093  -6.6892  -6.6750  -6.6636  -6.6431  -6.6333  -6.6302  -6.6113
    -6.6078  -6.5683  -6.5576  -6.5488  -6.5231  -6.5074  -6.4969  -6.4918
    -6.4629  -6.4486  -6.4466  -6.4414  -6.4217  -6.4157  -6.4126  -6.3918
    -6.3895  -6.3789  -6.3615  -6.3483  -6.3173  -6.2973  -6.2909  -6.2856
    -6.2741  -6.2580  -6.2397  -6.2323  -6.2290  -6.2103  -6.1980  -6.1909
    -6.1748  -6.1560  -6.1361  -6.1187  -6.1111  -6.0864  -6.0749  -6.0696
    -6.0602  -6.0498  -6.0476  -6.0372  -6.0239  -6.0140  -5.9982  -5.9920
    -5.9671  -5.9553  -5.9453  -5.9391  -5.9343  -5.9286  -5.9206  -5.9084
    -5.8999  -5.8908  -5.8859  -5.8579  -5.8536  -5.8292  -5.8170  -5.7929
    -5.7673  -5.7594  -5.7391  -5.7198  -5.7102  -5.7035  -5.6905  -5.6607
    -5.6464  -5.6385  -5.6309  -5.6272  -5.6159  -5.6002  -5.5942  -5.5804
    -5.5690  -5.5582  -5.5336  -5.5002  -5.4703  -5.4620  -5.4591  -5.4509
    -5.4338  -5.4179  -5.3915  -5.3783  -5.3689  -5.3530  -5.3413  -5.3208
    -5.2931  -5.2862  -5.2772  -5.2617  -5.2512  -5.2398  -5.2258  -5.2107
    -5.2016  -5.1890  -5.1635  -5.1401  -5.1304  -5.1108  -5.0845  -5.0714
    -5.0558  -5.0323  -5.0271  -5.0164  -5.0005  -4.9897  -4.9714  -4.8935
    -4.8673  -4.8366  -4.8024  -4.7637  -4.7574  -4.7462  -4.7454  -4.6600
    -4.6571  -4.6502  -4.6246  -4.6168  -4.5966  -4.5752  -4.5719  -4.5611
    -4.5551  -4.5030  -4.4683  -4.4609  -4.3999  -4.3975  -4.2638  -4.2475
    -4.1452  -4.1384  -3.9936  -3.9681  -3.8293  -3.7484  -3.7479  -3.6535
    -3.6344  -3.6340  -3.6065  -3.5773  -3.5770  -2.5936  -2.5875  -2.2578
    -2.2320  -2.2155  -2.2010  -2.1974  -2.1596  -2.1537  -2.1215  -2.1046
    -2.0931  -2.0592  -2.0460  -1.9627  -1.9558  -1.9426  -1.9263  -1.9240
    -1.9116  -1.8926  -1.8866  -1.8714  -1.8553  -1.8447  -1.8282  -1.8125
    -1.8058  -1.8020  -1.7384  -1.7338  -1.7259  -1.6272  -1.5804  -1.5785
    -1.5345  -1.5269  -1.4784  -1.4745  -1.3183  -1.3037  -1.2928  -1.2564
    -1.1754  -1.0859  -1.0757  -1.0264  -1.0085  -1.0075  -0.8958  -0.8374
    -0.8353  -0.8057  -0.7985  -0.7581  -0.7577  -0.5034  -0.4954  -0.4578
    -0.4130  -0.4054  -0.4042  -0.3798  -0.3512  -0.3339  -0.2995  -0.2700
    -0.2538  -0.2451  -0.2367  -0.2285  -0.2129  -0.1902  -0.1893  -0.0140
     0.1232   0.1236   0.2843   0.2859   0.3048   0.4438   0.6155   0.6219
     0.8104   0.8665   0.8722   0.9176   0.9498   0.9823   1.0037   1.0164
     1.0511   1.1068   1.1523   1.1555   1.1623   1.2174   1.2698   1.2884
     1.3654   1.4456   1.4649   1.4729   1.5247   1.5338   1.6196   1.6229
     1.6420   1.6457

     occupation numbers 
     1.0000   1.0000   1.0000   1.0000   1.0000   1.0000   1.0000   1.0000
     1.0000   1.0000   1.0000   1.0000   1.0000   1.0000   1.0000   1.0000
     1.0000   1.0000   1.0000   1.0000   1.0000   1.0000   1.0000   1.0000
     1.0000   1.0000   1.0000   1.0000   1.0000   1.0000   1.0000   1.0000
     1.0000   1.0000   1.0000   1.0000   1.0000   1.0000   1.0000   1.0000
     1.0000   1.0000   1.0000   1.0000   1.0000   1.0000   1.0000   1.0000
     1.0000   1.0000   1.0000   1.0000   1.0000   1.0000   1.0000   1.0000
     1.0000   1.0000   1.0000   1.0000   1.0000   1.0000   1.0000   1.0000
     1.0000   1.0000   1.0000   1.0000   1.0000   1.0000   1.0000   1.0000
     1.0000   1.0000   1.0000   1.0000   1.0000   1.0000   1.0000   1.0000
     1.0000   1.0000   1.0000   1.0000   1.0000   1.0000   1.0000   1.0000
     1.0000   1.0000   1.0000   1.0000   1.0000   1.0000   1.0000   1.0000
     1.0000   1.0000   1.0000   1.0000   1.0000   1.0000   1.0000   1.0000
     1.0000   1.0000   1.0000   1.0000   1.0000   1.0000   1.0000   1.0000
     1.0000   1.0000   1.0000   1.0000   1.0000   1.0000   1.0000   1.0000
     1.0000   1.0000   1.0000   1.0000   1.0000   1.0000   1.0000   1.0000
     1.0000   1.0000   1.0000   1.0000   1.0000   1.0000   1.0000   1.0000
     1.0000   1.0000   1.0000   1.0000   1.0000   1.0000   1.0000   1.0000
     1.0000   1.0000   1.0000   1.0000   1.0000   1.0000   1.0000   1.0000
     1.0000   1.0000   1.0000   1.0000   1.0000   1.0000   1.0000   1.0000
     1.0000   1.0000   1.0000   1.0000   1.0000   1.0000   1.0000   1.0000
     1.0000   1.0000   1.0000   1.0000   1.0000   1.0000   1.0000   1.0000
     1.0000   1.0000   1.0000   1.0000   1.0000   1.0000   1.0000   1.0000
     1.0000   1.0000   1.0000   1.0000   1.0000   1.0000   1.0000   1.0000
     1.0000   1.0000   1.0000   1.0000   1.0000   1.0000   1.0000   1.0000
     1.0000   1.0000   1.0000   1.0000   1.0000   1.0000   1.0000   1.0000
     1.0000   1.0000   1.0000   1.0000   1.0000   1.0000   1.0000   1.0000
     1.0000   1.0000   1.0000   1.0000   1.0000   1.0000   1.0000   1.0000
     1.0000   1.0000   1.0000   1.0000   1.0000   1.0000   1.0000   1.0000
     1.0000   1.0000   1.0000   1.0000   1.0000   1.0000   1.0000   1.0000
     1.0000   1.0000   1.0000   1.0000   1.0000   1.0000   1.0000   1.0000
     1.0000   1.0000   1.0000   1.0000   1.0000   1.0000   1.0000   1.0000
     1.0000   1.0000   1.0000   1.0000   1.0000   1.0000   1.0000   1.0000
     1.0000   1.0000   1.0000   1.0000   1.0000   1.0000   1.0000   1.0000
     1.0000   1.0000   1.0000   1.0000   1.0000   1.0000   1.0000   1.0000
     1.0000   1.0000   1.0000   1.0000   1.0000   1.0000   1.0000   1.0000
     1.0000   1.0000   1.0000   1.0000   1.0000   1.0000   1.0000   1.0000
     1.0000   1.0000   1.0000   1.0000   1.0000   1.0000   1.0000   1.0000
     1.0000   1.0000   1.0000   1.0000   1.0000   1.0000   1.0000   1.0000
     1.0000   1.0000   1.0000   1.0000   1.0000   1.0000   1.0000   1.0000
     1.0000   1.0000   1.0000   1.0000   1.0000   1.0000   1.0000   1.0000
     1.0000   1.0000   1.0000   1.0000   1.0000   1.0000   1.0000   1.0000
     1.0000   1.0000   1.0000   1.0000   1.0000   1.0000   1.0000   1.0000
     1.0000   1.0000   1.0000   1.0000   1.0000   1.0000   1.0000   1.0000
     1.0000   1.0000   1.0000   1.0000   1.0000   1.0000   1.0000   1.0000
     1.0000   1.0000   1.0000   1.0000   1.0000   1.0000   1.0000   1.0000
     1.0000   1.0000   1.0000   1.0000   1.0000   1.0000   1.0000   1.0000
     1.0000   1.0000   1.0000   1.0000   1.0000   1.0000   1.0000   1.0000
     1.0000   1.0000   1.0000   1.0000   1.0000   1.0000   1.0000   1.0000
     1.0000   1.0000   1.0000   1.0000   1.0000   1.0000   1.0000   1.0000
     1.0000   1.0000   1.0000   1.0000   1.0000   1.0000   1.0000   1.0000
     1.0000   1.0000   1.0000   1.0000   1.0000   1.0000   1.0000   1.0000
     1.0000   1.0000   1.0000   1.0000   1.0000   1.0000   1.0000   1.0000
     1.0000   1.0000   1.0000   1.0000   1.0000   1.0000   1.0000   1.0000
     1.0000   1.0000   1.0000   1.0000   1.0000   1.0000   1.0000   1.0000
     1.0000   1.0000   1.0000   1.0000   1.0000   1.0000   1.0000   1.0000
     1.0000   1.0000   1.0000   1.0000   1.0000   1.0000   1.0000   1.0000
     1.0000   1.0000   1.0000   1.0000   1.0000   1.0000   1.0000   1.0000
     1.0000   1.0000   1.0000   1.0000   1.0000   1.0000   1.0000   1.0000
     1.0000   1.0000   1.0001   1.0001   1.0001   1.0001   1.0002   1.0002
     1.0004   1.0004   1.0005   1.0007   1.0008   1.0010   1.0013   1.0016
     1.0019   1.0023   1.0034   1.0047   1.0054   1.0070   1.0099   1.0116
     1.0139   1.0181   1.0191   1.0214   1.0251   1.0278   1.0329   1.0584
     1.0672   1.0760   1.0823   1.0818   1.0807   1.0778   1.0776   1.0126
     1.0089   0.9997   0.9602   0.9465   0.9079   0.8621   0.8547   0.8296
     0.8150   0.6797   0.5839   0.5635   0.4010   0.3949   0.1369   0.1167
     0.0369   0.0339   0.0041   0.0027   0.0002   0.0000   0.0000   0.0000
     0.0000   0.0000   0.0000   0.0000   0.0000   0.0000   0.0000   0.0000
     0.0000   0.0000   0.0000   0.0000   0.0000   0.0000   0.0000   0.0000
     0.0000   0.0000   0.0000   0.0000   0.0000   0.0000   0.0000   0.0000
     0.0000   0.0000   0.0000   0.0000   0.0000   0.0000   0.0000   0.0000
     0.0000   0.0000   0.0000   0.0000   0.0000   0.0000   0.0000   0.0000
     0.0000   0.0000   0.0000   0.0000   0.0000   0.0000   0.0000   0.0000
     0.0000   0.0000   0.0000   0.0000   0.0000   0.0000   0.0000   0.0000
     0.0000   0.0000   0.0000   0.0000   0.0000   0.0000   0.0000   0.0000
     0.0000   0.0000   0.0000   0.0000   0.0000   0.0000   0.0000   0.0000
     0.0000   0.0000   0.0000   0.0000   0.0000   0.0000   0.0000   0.0000
     0.0000   0.0000   0.0000   0.0000   0.0000   0.0000   0.0000   0.0000
     0.0000   0.0000   0.0000   0.0000   0.0000   0.0000   0.0000   0.0000
     0.0000   0.0000   0.0000   0.0000   0.0000   0.0000   0.0000   0.0000
     0.0000   0.0000   0.0000   0.0000   0.0000   0.0000   0.0000   0.0000
     0.0000   0.0000

 ------ SPIN DOWN ----------


          k = 0.0000 0.0000 0.0000 (320189 PWs)   bands (ev):

   -59.6502 -59.6459 -59.6447 -59.6096 -59.6084 -59.6079 -59.5904 -59.5870
   -59.5867 -59.5857 -59.5831 -59.5827 -59.5766 -59.5762 -59.5757 -59.5662
   -35.7941 -35.7937 -35.7937 -35.7643 -35.7542 -35.7498 -35.7495 -35.7420
   -35.7419 -35.7064 -35.7060 -35.6977 -35.6933 -35.6906 -35.6904 -35.6809
   -35.6804 -35.6781 -35.6755 -35.6686 -35.6642 -35.6640 -35.6609 -35.6599
   -35.6371 -35.6357 -35.6353 -35.6327 -35.6306 -35.6300 -35.6212 -35.6199
   -35.6178 -35.6176 -35.6141 -35.6139 -35.6083 -35.6071 -35.6068 -35.6013
   -35.6011 -35.5980 -35.5968 -35.5956 -35.5954 -35.5890 -35.5854 -35.5853
   -23.8071 -23.3670 -23.3556 -23.3555 -23.3102 -23.3101 -23.2959 -22.7501
   -22.7501 -22.7255 -22.4594 -22.4593 -22.4123 -22.3953 -22.3952 -22.3818
   -22.3761 -22.3436 -22.3434 -22.3405 -22.1677 -22.1676 -22.1595 -22.1550
   -22.1550 -22.1500 -21.8992 -21.8238 -21.8120 -21.8090 -21.8090 -21.7873
   -21.7867 -21.7866 -21.7422 -21.7421 -21.7305 -21.6813 -21.6812 -21.6690
   -21.6588 -21.6588 -21.6359 -21.6306 -21.6305 -21.5363 -21.5361 -21.5248
   -21.5176 -21.5175 -21.4999 -21.4998 -21.4992 -21.4347 -21.4345 -21.4344
   -21.3875 -21.3792 -21.3791 -21.3367 -21.3365 -21.2612 -21.2591 -21.1731
   -21.1731 -21.1661 -21.1661 -21.0782 -21.0768 -21.0768 -21.0757 -21.0756
   -21.0756 -20.9545 -20.9543 -20.9543 -20.9491 -20.9484 -20.9484 -20.8560
   -20.8560 -17.8447 -17.3359 -17.3284 -17.3280 -17.3022 -17.3018 -17.2812
   -16.8361 -16.7867 -16.7541 -16.7074 -16.7073 -16.6720 -16.6717 -16.6556
   -16.6537 -16.6534 -16.6192 -16.6179 -16.6176 -16.5947 -16.5944 -16.5857
   -16.3823 -16.3663 -16.3494 -16.3493 -16.3230 -16.3229 -16.3204 -16.3143
   -16.3142 -11.0889 -11.0538 -11.0509 -11.0508 -11.0250 -11.0249 -11.0188
   -10.7133 -10.7075 -10.7074 -10.6868 -10.6853 -10.6853 -10.5395 -10.5319
   -10.5112 -10.5111 -10.5110 -10.5054 -10.5053 -10.4927 -10.4812 -10.4800
   -10.4799 -10.3071 -10.3071 -10.0941 -10.0941 -10.0811 -10.0810 -10.0702
   -10.0541 -10.0540 -10.0440 -10.0423 -10.0422  -9.6941  -9.6907  -9.6906
    -9.6905  -9.6670  -9.6670  -9.6632  -9.5440  -9.5423  -9.4605  -9.4605
    -9.3033  -9.3033  -9.2950  -9.2629  -9.2587  -9.2495  -9.2495  -9.1730
    -9.1729  -9.1631  -9.1332  -9.1332  -9.0273  -9.0095  -9.0036  -9.0035
    -8.9969  -8.9969  -8.9811  -8.9429  -8.9308  -8.9251  -8.9251  -8.8238
    -8.8238  -8.6750  -8.6686  -8.6684  -8.6372  -8.6370  -8.6186  -8.6185
    -8.6138  -8.6084  -8.6081  -8.6026  -8.5929  -8.5922  -8.5912  -8.4826
    -8.3768  -8.3723  -8.3721  -8.3481  -8.3480  -8.3397  -8.3188  -8.3163
    -8.3163  -8.2707  -8.2704  -8.2687  -8.2607  -8.2581  -8.2579  -8.2314
    -8.2296  -8.2293  -8.1430  -8.1297  -8.1283  -8.1283  -8.0724  -8.0724
    -8.0641  -8.0542  -8.0541  -8.0472  -8.0041  -7.9961  -7.9951  -7.9950
    -7.9686  -7.9684  -7.9059  -7.8572  -7.8570  -7.8489  -7.8324  -7.8323
    -7.8312  -7.8036  -7.8035  -7.7940  -7.7769  -7.7675  -7.7672  -7.7330
    -7.7071  -7.7070  -7.6450  -7.6226  -7.6224  -7.6223  -7.6102  -7.6101
    -7.4402  -7.4240  -7.4238  -7.4125  -7.4124  -7.3970  -7.3420  -7.3396
    -7.3396  -7.3166  -7.3166  -7.3129  -7.2117  -7.2116  -7.1996  -7.1994
    -7.1975  -7.1829  -7.1632  -7.1630  -7.1244  -7.0848  -7.0735  -7.0734
    -7.0593  -7.0538  -7.0508  -7.0505  -7.0377  -7.0326  -7.0323  -6.9404
    -6.9402  -6.9297  -6.9182  -6.9181  -6.9026  -6.8860  -6.8790  -6.8788
    -6.8573  -6.8571  -6.8321  -6.8319  -6.8281  -6.8238  -6.8166  -6.8164
    -6.8074  -6.8070  -6.7918  -6.7899  -6.7879  -6.7868  -6.7720  -6.7710
    -6.7685  -6.7607  -6.7590  -6.7590  -6.6534  -6.6533  -6.6442  -6.6249
    -6.6248  -6.6136  -6.5919  -6.5919  -6.5505  -6.5505  -6.5462  -6.5252
    -6.5251  -6.5089  -6.5087  -6.5037  -6.4609  -6.4608  -6.4503  -6.4501
    -6.4375  -6.4294  -6.3802  -6.3615  -6.3615  -6.3486  -6.3486  -6.3317
    -6.3275  -6.3152  -6.3148  -6.2969  -6.2967  -6.2899  -6.1729  -6.1729
    -6.1282  -6.1030  -6.1029  -6.0967  -6.0735  -6.0734  -6.0721  -6.0591
    -6.0553  -6.0552  -6.0410  -6.0410  -6.0264  -6.0058  -6.0057  -5.9917
    -5.9917  -5.9575  -5.9432  -5.9399  -5.9396  -5.9208  -5.9206  -5.9128
    -5.8992  -5.8986  -5.8983  -5.8839  -5.8819  -5.8818  -5.8599  -5.7193
    -5.7185  -5.7183  -5.7045  -5.7043  -5.6770  -5.6497  -5.6393  -5.6392
    -5.6209  -5.6018  -5.5832  -5.5831  -5.5256  -5.5253  -5.5098  -5.5096
    -5.4930  -5.4928  -5.4587  -5.4523  -5.4519  -5.4244  -5.4192  -5.4191
    -5.3861  -5.3794  -5.3792  -5.3709  -5.3491  -5.3491  -5.3402  -5.3166
    -5.3163  -5.3074  -5.3071  -5.2913  -5.2796  -5.2422  -5.2417  -5.1825
    -5.1757  -5.1756  -5.1599  -5.1598  -5.1559  -5.1318  -5.1317  -5.1186
    -5.0775  -5.0660  -5.0420  -5.0420  -4.9972  -4.9787  -4.9783  -4.9652
    -4.9462  -4.9460  -4.7352  -4.7352  -4.7310  -4.7294  -4.7294  -4.7256
    -4.7221  -4.7221  -4.5385  -4.5383  -4.5349  -4.4753  -4.4752  -4.4351
    -4.4167  -4.4166  -4.4120  -4.4086  -4.4085  -4.3923  -4.3920  -4.3872
    -4.3758  -4.3707  -4.3701  -4.0299  -3.7061  -3.7057  -3.7057  -3.6976
    -3.6976  -3.6969  -3.5562  -3.5562  -3.5543  -2.2734  -2.2727  -2.2723
    -2.2419  -2.2413  -2.2376  -2.2017  -2.2016  -2.1804  -2.0321  -2.0319
    -2.0180  -2.0086  -2.0082  -1.9660  -1.9425  -1.9407  -1.9316  -1.9304
    -1.9155  -1.9154  -1.8419  -1.8415  -1.8404  -1.7981  -1.7921  -1.7125
    -1.7121  -1.6806  -1.6773  -1.6769  -1.6652  -1.6647  -1.6426  -1.6411
    -1.6409  -1.6205  -1.6202  -1.4343  -1.4342  -1.4200  -1.3241  -1.3166
    -1.1785  -1.1776  -1.1732  -1.1723  -0.8027  -0.8021  -0.8014  -0.7916
    -0.7855  -0.7853  -0.7615  -0.7614  -0.7583  -0.6126  -0.6115  -0.6115
    -0.6103  -0.6102  -0.6100  -0.3296  -0.2899  -0.2797  -0.2209  -0.2204
    -0.2072  -0.2072  -0.1842  -0.1721  -0.1719  -0.0903   0.1048   0.1048
     0.1324   0.1336   0.1336   0.1351   0.1351   0.1358   0.2183   0.2185
     0.7367   0.8352   0.8671   0.8677   0.9785   0.9789   0.9789   0.9802
     0.9810   0.9810   1.0226   1.1429   1.3522   1.3527   1.3856   1.3856
     1.4941   1.5114   1.5574   1.5600   1.5602   1.6121   1.6864   1.6920
     1.7013   1.7038

     occupation numbers 
     1.0000   1.0000   1.0000   1.0000   1.0000   1.0000   1.0000   1.0000
     1.0000   1.0000   1.0000   1.0000   1.0000   1.0000   1.0000   1.0000
     1.0000   1.0000   1.0000   1.0000   1.0000   1.0000   1.0000   1.0000
     1.0000   1.0000   1.0000   1.0000   1.0000   1.0000   1.0000   1.0000
     1.0000   1.0000   1.0000   1.0000   1.0000   1.0000   1.0000   1.0000
     1.0000   1.0000   1.0000   1.0000   1.0000   1.0000   1.0000   1.0000
     1.0000   1.0000   1.0000   1.0000   1.0000   1.0000   1.0000   1.0000
     1.0000   1.0000   1.0000   1.0000   1.0000   1.0000   1.0000   1.0000
     1.0000   1.0000   1.0000   1.0000   1.0000   1.0000   1.0000   1.0000
     1.0000   1.0000   1.0000   1.0000   1.0000   1.0000   1.0000   1.0000
     1.0000   1.0000   1.0000   1.0000   1.0000   1.0000   1.0000   1.0000
     1.0000   1.0000   1.0000   1.0000   1.0000   1.0000   1.0000   1.0000
     1.0000   1.0000   1.0000   1.0000   1.0000   1.0000   1.0000   1.0000
     1.0000   1.0000   1.0000   1.0000   1.0000   1.0000   1.0000   1.0000
     1.0000   1.0000   1.0000   1.0000   1.0000   1.0000   1.0000   1.0000
     1.0000   1.0000   1.0000   1.0000   1.0000   1.0000   1.0000   1.0000
     1.0000   1.0000   1.0000   1.0000   1.0000   1.0000   1.0000   1.0000
     1.0000   1.0000   1.0000   1.0000   1.0000   1.0000   1.0000   1.0000
     1.0000   1.0000   1.0000   1.0000   1.0000   1.0000   1.0000   1.0000
     1.0000   1.0000   1.0000   1.0000   1.0000   1.0000   1.0000   1.0000
     1.0000   1.0000   1.0000   1.0000   1.0000   1.0000   1.0000   1.0000
     1.0000   1.0000   1.0000   1.0000   1.0000   1.0000   1.0000   1.0000
     1.0000   1.0000   1.0000   1.0000   1.0000   1.0000   1.0000   1.0000
     1.0000   1.0000   1.0000   1.0000   1.0000   1.0000   1.0000   1.0000
     1.0000   1.0000   1.0000   1.0000   1.0000   1.0000   1.0000   1.0000
     1.0000   1.0000   1.0000   1.0000   1.0000   1.0000   1.0000   1.0000
     1.0000   1.0000   1.0000   1.0000   1.0000   1.0000   1.0000   1.0000
     1.0000   1.0000   1.0000   1.0000   1.0000   1.0000   1.0000   1.0000
     1.0000   1.0000   1.0000   1.0000   1.0000   1.0000   1.0000   1.0000
     1.0000   1.0000   1.0000   1.0000   1.0000   1.0000   1.0000   1.0000
     1.0000   1.0000   1.0000   1.0000   1.0000   1.0000   1.0000   1.0000
     1.0000   1.0000   1.0000   1.0000   1.0000   1.0000   1.0000   1.0000
     1.0000   1.0000   1.0000   1.0000   1.0000   1.0000   1.0000   1.0000
     1.0000   1.0000   1.0000   1.0000   1.0000   1.0000   1.0000   1.0000
     1.0000   1.0000   1.0000   1.0000   1.0000   1.0000   1.0000   1.0000
     1.0000   1.0000   1.0000   1.0000   1.0000   1.0000   1.0000   1.0000
     1.0000   1.0000   1.0000   1.0000   1.0000   1.0000   1.0000   1.0000
     1.0000   1.0000   1.0000   1.0000   1.0000   1.0000   1.0000   1.0000
     1.0000   1.0000   1.0000   1.0000   1.0000   1.0000   1.0000   1.0000
     1.0000   1.0000   1.0000   1.0000   1.0000   1.0000   1.0000   1.0000
     1.0000   1.0000   1.0000   1.0000   1.0000   1.0000   1.0000   1.0000
     1.0000   1.0000   1.0000   1.0000   1.0000   1.0000   1.0000   1.0000
     1.0000   1.0000   1.0000   1.0000   1.0000   1.0000   1.0000   1.0000
     1.0000   1.0000   1.0000   1.0000   1.0000   1.0000   1.0000   1.0000
     1.0000   1.0000   1.0000   1.0000   1.0000   1.0000   1.0000   1.0000
     1.0000   1.0000   1.0000   1.0000   1.0000   1.0000   1.0000   1.0000
     1.0000   1.0000   1.0000   1.0000   1.0000   1.0000   1.0000   1.0000
     1.0000   1.0000   1.0000   1.0000   1.0000   1.0000   1.0000   1.0000
     1.0000   1.0000   1.0000   1.0000   1.0000   1.0000   1.0000   1.0000
     1.0000   1.0000   1.0000   1.0000   1.0000   1.0000   1.0000   1.0000
     1.0000   1.0000   1.0000   1.0000   1.0000   1.0000   1.0000   1.0000
     1.0000   1.0000   1.0000   1.0000   1.0000   1.0000   1.0000   1.0000
     1.0000   1.0000   1.0000   1.0000   1.0000   1.0000   1.0000   1.0000
     1.0000   1.0000   1.0000   1.0000   1.0000   1.0000   1.0000   1.0000
     1.0000   1.0000   1.0000   1.0000   1.0000   1.0000   1.0000   1.0000
     1.0000   1.0000   1.0000   1.0000   1.0000   1.0000   1.0000   1.0000
     1.0000   1.0000   1.0000   1.0000   1.0000   1.0000   1.0000   1.0000
     1.0000   1.0000   1.0000   1.0000   1.0000   1.0000   1.0000   1.0000
     1.0000   1.0000   1.0000   1.0000   1.0000   1.0000   1.0000   1.0000
     1.0001   1.0001   1.0001   1.0001   1.0001   1.0001   1.0002   1.0003
     1.0003   1.0003   1.0003   1.0004   1.0005   1.0010   1.0010   1.0025
     1.0028   1.0028   1.0035   1.0036   1.0038   1.0053   1.0053   1.0063
     1.0108   1.0123   1.0163   1.0163   1.0259   1.0308   1.0309   1.0347
     1.0405   1.0406   1.0740   1.0740   1.0722   1.0715   1.0715   1.0696
     1.0679   1.0678   0.7736   0.7734   0.7644   0.6033   0.6033   0.4930
     0.4439   0.4438   0.4319   0.4230   0.4227   0.3819   0.3812   0.3696
     0.3423   0.3305   0.3290   0.0073   0.0000   0.0000   0.0000   0.0000
     0.0000   0.0000   0.0000   0.0000   0.0000   0.0000   0.0000   0.0000
     0.0000   0.0000   0.0000   0.0000   0.0000   0.0000   0.0000   0.0000
     0.0000   0.0000   0.0000   0.0000   0.0000   0.0000   0.0000   0.0000
     0.0000   0.0000   0.0000   0.0000   0.0000   0.0000   0.0000   0.0000
     0.0000   0.0000   0.0000   0.0000   0.0000   0.0000   0.0000   0.0000
     0.0000   0.0000   0.0000   0.0000   0.0000   0.0000   0.0000   0.0000
     0.0000   0.0000   0.0000   0.0000   0.0000   0.0000   0.0000   0.0000
     0.0000   0.0000   0.0000   0.0000   0.0000   0.0000   0.0000   0.0000
     0.0000   0.0000   0.0000   0.0000   0.0000   0.0000   0.0000   0.0000
     0.0000   0.0000   0.0000   0.0000   0.0000   0.0000   0.0000   0.0000
     0.0000   0.0000   0.0000   0.0000   0.0000   0.0000   0.0000   0.0000
     0.0000   0.0000   0.0000   0.0000   0.0000   0.0000   0.0000   0.0000
     0.0000   0.0000   0.0000   0.0000   0.0000   0.0000   0.0000   0.0000
     0.0000   0.0000   0.0000   0.0000   0.0000   0.0000   0.0000   0.0000
     0.0000   0.0000

          k = 0.0000 0.3849 0.0000 (319990 PWs)   bands (ev):

   -59.6502 -59.6459 -59.6447 -59.6096 -59.6084 -59.6079 -59.5902 -59.5880
   -59.5867 -59.5846 -59.5834 -59.5828 -59.5767 -59.5763 -59.5756 -59.5662
   -35.7905 -35.7897 -35.7867 -35.7672 -35.7579 -35.7521 -35.7516 -35.7373
   -35.7363 -35.7322 -35.7199 -35.7114 -35.6993 -35.6931 -35.6833 -35.6777
   -35.6764 -35.6753 -35.6673 -35.6610 -35.6603 -35.6567 -35.6509 -35.6435
   -35.6379 -35.6369 -35.6359 -35.6346 -35.6308 -35.6305 -35.6252 -35.6221
   -35.6200 -35.6149 -35.6137 -35.6123 -35.6107 -35.6075 -35.6069 -35.6027
   -35.6015 -35.5987 -35.5968 -35.5963 -35.5951 -35.5927 -35.5886 -35.5865
   -23.7529 -23.5899 -23.4335 -23.4260 -23.1514 -23.1457 -23.0244 -22.9065
   -22.9060 -22.6825 -22.5676 -22.5476 -22.4733 -22.4692 -22.4369 -22.4263
   -22.3761 -22.3749 -22.1889 -22.1831 -22.1689 -22.1634 -22.0760 -22.0140
   -22.0105 -21.9691 -21.9594 -21.9038 -21.8919 -21.8835 -21.8693 -21.8454
   -21.8145 -21.8079 -21.7857 -21.7517 -21.7419 -21.7210 -21.6927 -21.6853
   -21.6654 -21.6521 -21.6473 -21.5977 -21.5705 -21.5658 -21.5625 -21.4991
   -21.4896 -21.4727 -21.4617 -21.4582 -21.4471 -21.4359 -21.4235 -21.4024
   -21.4016 -21.3825 -21.3649 -21.3439 -21.3395 -21.3339 -21.3211 -21.2250
   -21.1851 -21.1837 -21.1413 -21.1389 -21.0732 -21.0723 -21.0158 -21.0136
   -20.9923 -20.9913 -20.9780 -20.9596 -20.9533 -20.9510 -20.9100 -20.8820
   -20.8718 -17.7780 -17.5882 -17.4206 -17.4105 -17.1347 -17.1273 -17.0152
   -16.9169 -16.9083 -16.8070 -16.7738 -16.7319 -16.7243 -16.7029 -16.6871
   -16.6554 -16.6503 -16.6436 -16.5690 -16.5666 -16.5285 -16.5273 -16.4801
   -16.4362 -16.4326 -16.3758 -16.3548 -16.3446 -16.3345 -16.3177 -16.2750
   -16.2739 -11.1092 -11.0494 -10.9878 -10.9818 -10.9785 -10.9162 -10.9130
   -10.7920 -10.7501 -10.7406 -10.7098 -10.6993 -10.6948 -10.6919 -10.6671
   -10.6066 -10.5845 -10.5780 -10.5503 -10.4804 -10.4654 -10.4018 -10.3701
   -10.3298 -10.2958 -10.2666 -10.2435 -10.2170 -10.2016 -10.1839 -10.1451
   -10.0985 -10.0651 -10.0515 -10.0069  -9.8889  -9.7848  -9.6934  -9.6790
    -9.6048  -9.5963  -9.5827  -9.5689  -9.5313  -9.4809  -9.3382  -9.3347
    -9.3131  -9.2868  -9.2643  -9.2535  -9.2398  -9.1995  -9.1815  -9.1364
    -9.1307  -9.0844  -9.0742  -9.0657  -9.0576  -9.0435  -9.0088  -8.9921
    -8.9844  -8.9686  -8.9554  -8.9218  -8.8924  -8.8681  -8.8529  -8.8331
    -8.7916  -8.7878  -8.7674  -8.7426  -8.7398  -8.7119  -8.6769  -8.6716
    -8.6655  -8.6132  -8.6010  -8.5895  -8.5702  -8.5558  -8.5167  -8.5037
    -8.4998  -8.4881  -8.4859  -8.4823  -8.4753  -8.4703  -8.4613  -8.4169
    -8.3638  -8.3031  -8.2866  -8.2733  -8.2608  -8.2458  -8.2335  -8.2285
    -8.1965  -8.1854  -8.1804  -8.1637  -8.1136  -8.1004  -8.0843  -8.0715
    -8.0663  -8.0438  -8.0401  -8.0143  -7.9680  -7.9587  -7.9412  -7.9312
    -7.8805  -7.8748  -7.8617  -7.8426  -7.8357  -7.8209  -7.8133  -7.8077
    -7.7964  -7.7820  -7.7651  -7.7322  -7.7298  -7.7161  -7.7047  -7.6872
    -7.6602  -7.6458  -7.6322  -7.6135  -7.6085  -7.5979  -7.5898  -7.5862
    -7.5662  -7.5596  -7.4927  -7.4407  -7.4252  -7.4101  -7.4009  -7.3931
    -7.3634  -7.3326  -7.3133  -7.2947  -7.2891  -7.2703  -7.2626  -7.2446
    -7.2334  -7.2298  -7.2077  -7.1978  -7.1661  -7.1617  -7.1416  -7.1219
    -7.1011  -7.0868  -7.0716  -7.0508  -7.0455  -7.0301  -6.9735  -6.9643
    -6.9549  -6.9527  -6.9410  -6.9292  -6.9159  -6.9133  -6.9035  -6.8955
    -6.8829  -6.8675  -6.8546  -6.8515  -6.8429  -6.8363  -6.8297  -6.8206
    -6.8133  -6.8034  -6.7986  -6.7824  -6.7763  -6.7643  -6.7493  -6.7199
    -6.7093  -6.6892  -6.6749  -6.6635  -6.6432  -6.6334  -6.6302  -6.6114
    -6.6079  -6.5684  -6.5577  -6.5487  -6.5230  -6.5076  -6.4968  -6.4918
    -6.4629  -6.4486  -6.4466  -6.4413  -6.4217  -6.4156  -6.4126  -6.3917
    -6.3895  -6.3790  -6.3613  -6.3482  -6.3174  -6.2973  -6.2909  -6.2855
    -6.2740  -6.2581  -6.2399  -6.2321  -6.2289  -6.2104  -6.1982  -6.1908
    -6.1749  -6.1560  -6.1361  -6.1188  -6.1110  -6.0864  -6.0748  -6.0695
    -6.0602  -6.0498  -6.0475  -6.0372  -6.0239  -6.0140  -5.9982  -5.9919
    -5.9671  -5.9553  -5.9452  -5.9391  -5.9343  -5.9286  -5.9206  -5.9085
    -5.9000  -5.8907  -5.8859  -5.8578  -5.8536  -5.8292  -5.8170  -5.7930
    -5.7673  -5.7594  -5.7392  -5.7197  -5.7102  -5.7034  -5.6906  -5.6608
    -5.6464  -5.6385  -5.6308  -5.6272  -5.6159  -5.6002  -5.5942  -5.5803
    -5.5690  -5.5585  -5.5335  -5.5002  -5.4703  -5.4619  -5.4591  -5.4508
    -5.4337  -5.4178  -5.3916  -5.3786  -5.3689  -5.3530  -5.3413  -5.3209
    -5.2930  -5.2861  -5.2772  -5.2618  -5.2514  -5.2398  -5.2259  -5.2106
    -5.2014  -5.1890  -5.1634  -5.1401  -5.1304  -5.1109  -5.0846  -5.0715
    -5.0558  -5.0323  -5.0273  -5.0165  -5.0004  -4.9897  -4.9711  -4.8934
    -4.8673  -4.8367  -4.8025  -4.7637  -4.7574  -4.7462  -4.7454  -4.6594
    -4.6571  -4.6502  -4.6246  -4.6162  -4.5965  -4.5749  -4.5717  -4.5610
    -4.5553  -4.5030  -4.4683  -4.4605  -4.4003  -4.3975  -4.2638  -4.2475
    -4.1446  -4.1387  -3.9934  -3.9681  -3.8293  -3.7484  -3.7479  -3.6533
    -3.6344  -3.6340  -3.6065  -3.5773  -3.5770  -2.5935  -2.5874  -2.2576
    -2.2319  -2.2155  -2.2004  -2.1973  -2.1597  -2.1538  -2.1215  -2.1045
    -2.0929  -2.0589  -2.0460  -1.9625  -1.9558  -1.9429  -1.9268  -1.9235
    -1.9110  -1.8926  -1.8863  -1.8713  -1.8550  -1.8451  -1.8285  -1.8124
    -1.8052  -1.8017  -1.7383  -1.7333  -1.7261  -1.6275  -1.5806  -1.5784
    -1.5345  -1.5269  -1.4782  -1.4749  -1.3183  -1.3036  -1.2923  -1.2561
    -1.1753  -1.0858  -1.0760  -1.0264  -1.0087  -1.0072  -0.8958  -0.8373
    -0.8349  -0.8056  -0.7986  -0.7581  -0.7577  -0.5034  -0.4955  -0.4578
    -0.4130  -0.4054  -0.4042  -0.3801  -0.3514  -0.3342  -0.2996  -0.2698
    -0.2540  -0.2450  -0.2367  -0.2281  -0.2124  -0.1902  -0.1893  -0.0140
     0.1232   0.1236   0.2843   0.2859   0.3048   0.4438   0.6155   0.6219
     0.8104   0.8665   0.8722   0.9177   0.9498   0.9820   1.0037   1.0162
     1.0512   1.1068   1.1523   1.1559   1.1623   1.2174   1.2702   1.2887
     1.3648   1.4454   1.4649   1.4729   1.5247   1.5338   1.6198   1.6229
     1.6419   1.6458

     occupation numbers 
     1.0000   1.0000   1.0000   1.0000   1.0000   1.0000   1.0000   1.0000
     1.0000   1.0000   1.0000   1.0000   1.0000   1.0000   1.0000   1.0000
     1.0000   1.0000   1.0000   1.0000   1.0000   1.0000   1.0000   1.0000
     1.0000   1.0000   1.0000   1.0000   1.0000   1.0000   1.0000   1.0000
     1.0000   1.0000   1.0000   1.0000   1.0000   1.0000   1.0000   1.0000
     1.0000   1.0000   1.0000   1.0000   1.0000   1.0000   1.0000   1.0000
     1.0000   1.0000   1.0000   1.0000   1.0000   1.0000   1.0000   1.0000
     1.0000   1.0000   1.0000   1.0000   1.0000   1.0000   1.0000   1.0000
     1.0000   1.0000   1.0000   1.0000   1.0000   1.0000   1.0000   1.0000
     1.0000   1.0000   1.0000   1.0000   1.0000   1.0000   1.0000   1.0000
     1.0000   1.0000   1.0000   1.0000   1.0000   1.0000   1.0000   1.0000
     1.0000   1.0000   1.0000   1.0000   1.0000   1.0000   1.0000   1.0000
     1.0000   1.0000   1.0000   1.0000   1.0000   1.0000   1.0000   1.0000
     1.0000   1.0000   1.0000   1.0000   1.0000   1.0000   1.0000   1.0000
     1.0000   1.0000   1.0000   1.0000   1.0000   1.0000   1.0000   1.0000
     1.0000   1.0000   1.0000   1.0000   1.0000   1.0000   1.0000   1.0000
     1.0000   1.0000   1.0000   1.0000   1.0000   1.0000   1.0000   1.0000
     1.0000   1.0000   1.0000   1.0000   1.0000   1.0000   1.0000   1.0000
     1.0000   1.0000   1.0000   1.0000   1.0000   1.0000   1.0000   1.0000
     1.0000   1.0000   1.0000   1.0000   1.0000   1.0000   1.0000   1.0000
     1.0000   1.0000   1.0000   1.0000   1.0000   1.0000   1.0000   1.0000
     1.0000   1.0000   1.0000   1.0000   1.0000   1.0000   1.0000   1.0000
     1.0000   1.0000   1.0000   1.0000   1.0000   1.0000   1.0000   1.0000
     1.0000   1.0000   1.0000   1.0000   1.0000   1.0000   1.0000   1.0000
     1.0000   1.0000   1.0000   1.0000   1.0000   1.0000   1.0000   1.0000
     1.0000   1.0000   1.0000   1.0000   1.0000   1.0000   1.0000   1.0000
     1.0000   1.0000   1.0000   1.0000   1.0000   1.0000   1.0000   1.0000
     1.0000   1.0000   1.0000   1.0000   1.0000   1.0000   1.0000   1.0000
     1.0000   1.0000   1.0000   1.0000   1.0000   1.0000   1.0000   1.0000
     1.0000   1.0000   1.0000   1.0000   1.0000   1.0000   1.0000   1.0000
     1.0000   1.0000   1.0000   1.0000   1.0000   1.0000   1.0000   1.0000
     1.0000   1.0000   1.0000   1.0000   1.0000   1.0000   1.0000   1.0000
     1.0000   1.0000   1.0000   1.0000   1.0000   1.0000   1.0000   1.0000
     1.0000   1.0000   1.0000   1.0000   1.0000   1.0000   1.0000   1.0000
     1.0000   1.0000   1.0000   1.0000   1.0000   1.0000   1.0000   1.0000
     1.0000   1.0000   1.0000   1.0000   1.0000   1.0000   1.0000   1.0000
     1.0000   1.0000   1.0000   1.0000   1.0000   1.0000   1.0000   1.0000
     1.0000   1.0000   1.0000   1.0000   1.0000   1.0000   1.0000   1.0000
     1.0000   1.0000   1.0000   1.0000   1.0000   1.0000   1.0000   1.0000
     1.0000   1.0000   1.0000   1.0000   1.0000   1.0000   1.0000   1.0000
     1.0000   1.0000   1.0000   1.0000   1.0000   1.0000   1.0000   1.0000
     1.0000   1.0000   1.0000   1.0000   1.0000   1.0000   1.0000   1.0000
     1.0000   1.0000   1.0000   1.0000   1.0000   1.0000   1.0000   1.0000
     1.0000   1.0000   1.0000   1.0000   1.0000   1.0000   1.0000   1.0000
     1.0000   1.0000   1.0000   1.0000   1.0000   1.0000   1.0000   1.0000
     1.0000   1.0000   1.0000   1.0000   1.0000   1.0000   1.0000   1.0000
     1.0000   1.0000   1.0000   1.0000   1.0000   1.0000   1.0000   1.0000
     1.0000   1.0000   1.0000   1.0000   1.0000   1.0000   1.0000   1.0000
     1.0000   1.0000   1.0000   1.0000   1.0000   1.0000   1.0000   1.0000
     1.0000   1.0000   1.0000   1.0000   1.0000   1.0000   1.0000   1.0000
     1.0000   1.0000   1.0000   1.0000   1.0000   1.0000   1.0000   1.0000
     1.0000   1.0000   1.0000   1.0000   1.0000   1.0000   1.0000   1.0000
     1.0000   1.0000   1.0000   1.0000   1.0000   1.0000   1.0000   1.0000
     1.0000   1.0000   1.0000   1.0000   1.0000   1.0000   1.0000   1.0000
     1.0000   1.0000   1.0000   1.0000   1.0000   1.0000   1.0000   1.0000
     1.0000   1.0000   1.0000   1.0000   1.0000   1.0000   1.0000   1.0000
     1.0000   1.0000   1.0000   1.0000   1.0000   1.0000   1.0000   1.0000
     1.0000   1.0000   1.0000   1.0000   1.0000   1.0000   1.0000   1.0000
     1.0000   1.0000   1.0000   1.0000   1.0000   1.0000   1.0000   1.0000
     1.0000   1.0000   1.0001   1.0001   1.0001   1.0001   1.0002   1.0002
     1.0004   1.0004   1.0005   1.0007   1.0008   1.0010   1.0013   1.0016
     1.0019   1.0023   1.0034   1.0047   1.0054   1.0070   1.0099   1.0116
     1.0139   1.0181   1.0191   1.0214   1.0251   1.0278   1.0329   1.0584
     1.0672   1.0760   1.0823   1.0818   1.0807   1.0778   1.0776   1.0119
     1.0089   0.9996   0.9602   0.9455   0.9078   0.8616   0.8543   0.8293
     0.8156   0.6797   0.5839   0.5623   0.4020   0.3948   0.1368   0.1168
     0.0366   0.0340   0.0041   0.0027   0.0002   0.0000   0.0000   0.0000
     0.0000   0.0000   0.0000   0.0000   0.0000   0.0000   0.0000   0.0000
     0.0000   0.0000   0.0000   0.0000   0.0000   0.0000   0.0000   0.0000
     0.0000   0.0000   0.0000   0.0000   0.0000   0.0000   0.0000   0.0000
     0.0000   0.0000   0.0000   0.0000   0.0000   0.0000   0.0000   0.0000
     0.0000   0.0000   0.0000   0.0000   0.0000   0.0000   0.0000   0.0000
     0.0000   0.0000   0.0000   0.0000   0.0000   0.0000   0.0000   0.0000
     0.0000   0.0000   0.0000   0.0000   0.0000   0.0000   0.0000   0.0000
     0.0000   0.0000   0.0000   0.0000   0.0000   0.0000   0.0000   0.0000
     0.0000   0.0000   0.0000   0.0000   0.0000   0.0000   0.0000   0.0000
     0.0000   0.0000   0.0000   0.0000   0.0000   0.0000   0.0000   0.0000
     0.0000   0.0000   0.0000   0.0000   0.0000   0.0000   0.0000   0.0000
     0.0000   0.0000   0.0000   0.0000   0.0000   0.0000   0.0000   0.0000
     0.0000   0.0000   0.0000   0.0000   0.0000   0.0000   0.0000   0.0000
     0.0000   0.0000   0.0000   0.0000   0.0000   0.0000   0.0000   0.0000
     0.0000   0.0000

          k = 0.3333 0.1925 0.0000 (319990 PWs)   bands (ev):

   -59.6502 -59.6460 -59.6447 -59.6096 -59.6084 -59.6079 -59.5902 -59.5879
   -59.5867 -59.5847 -59.5834 -59.5827 -59.5766 -59.5763 -59.5756 -59.5662
   -35.7902 -35.7900 -35.7867 -35.7671 -35.7581 -35.7520 -35.7515 -35.7372
   -35.7365 -35.7321 -35.7198 -35.7114 -35.6994 -35.6932 -35.6833 -35.6773
   -35.6763 -35.6753 -35.6676 -35.6612 -35.6600 -35.6563 -35.6510 -35.6435
   -35.6379 -35.6369 -35.6361 -35.6346 -35.6312 -35.6302 -35.6252 -35.6220
   -35.6201 -35.6149 -35.6135 -35.6125 -35.6106 -35.6076 -35.6071 -35.6028
   -35.6013 -35.5986 -35.5968 -35.5965 -35.5950 -35.5927 -35.5886 -35.5865
   -23.7530 -23.5899 -23.4335 -23.4260 -23.1514 -23.1457 -23.0244 -22.9065
   -22.9060 -22.6825 -22.5676 -22.5476 -22.4732 -22.4693 -22.4369 -22.4264
   -22.3762 -22.3748 -22.1889 -22.1831 -22.1688 -22.1634 -22.0760 -22.0140
   -22.0105 -21.9691 -21.9594 -21.9038 -21.8919 -21.8834 -21.8693 -21.8454
   -21.8145 -21.8079 -21.7857 -21.7516 -21.7419 -21.7210 -21.6926 -21.6853
   -21.6655 -21.6521 -21.6473 -21.5977 -21.5705 -21.5658 -21.5625 -21.4991
   -21.4895 -21.4728 -21.4617 -21.4581 -21.4471 -21.4359 -21.4234 -21.4024
   -21.4016 -21.3826 -21.3648 -21.3438 -21.3396 -21.3339 -21.3211 -21.2250
   -21.1851 -21.1837 -21.1413 -21.1389 -21.0732 -21.0723 -21.0158 -21.0136
   -20.9923 -20.9913 -20.9780 -20.9596 -20.9533 -20.9510 -20.9100 -20.8820
   -20.8718 -17.7780 -17.5882 -17.4207 -17.4105 -17.1346 -17.1273 -17.0152
   -16.9168 -16.9083 -16.8070 -16.7739 -16.7320 -16.7243 -16.7030 -16.6871
   -16.6552 -16.6503 -16.6434 -16.5690 -16.5667 -16.5286 -16.5273 -16.4801
   -16.4363 -16.4326 -16.3758 -16.3546 -16.3442 -16.3348 -16.3179 -16.2750
   -16.2739 -11.1092 -11.0494 -10.9877 -10.9818 -10.9785 -10.9162 -10.9130
   -10.7920 -10.7501 -10.7406 -10.7098 -10.6993 -10.6948 -10.6919 -10.6671
   -10.6066 -10.5845 -10.5781 -10.5503 -10.4804 -10.4654 -10.4018 -10.3701
   -10.3298 -10.2958 -10.2666 -10.2434 -10.2170 -10.2016 -10.1839 -10.1451
   -10.0985 -10.0651 -10.0515 -10.0069  -9.8889  -9.7848  -9.6934  -9.6790
    -9.6048  -9.5963  -9.5826  -9.5689  -9.5313  -9.4809  -9.3382  -9.3347
    -9.3131  -9.2869  -9.2643  -9.2535  -9.2398  -9.1994  -9.1815  -9.1362
    -9.1307  -9.0844  -9.0743  -9.0657  -9.0575  -9.0434  -9.0088  -8.9921
    -8.9845  -8.9687  -8.9553  -8.9217  -8.8924  -8.8681  -8.8529  -8.8331
    -8.7917  -8.7878  -8.7675  -8.7426  -8.7399  -8.7119  -8.6770  -8.6717
    -8.6653  -8.6132  -8.6010  -8.5895  -8.5705  -8.5559  -8.5166  -8.5036
    -8.4998  -8.4879  -8.4860  -8.4823  -8.4751  -8.4702  -8.4614  -8.4169
    -8.3638  -8.3030  -8.2864  -8.2735  -8.2608  -8.2458  -8.2336  -8.2285
    -8.1964  -8.1854  -8.1804  -8.1637  -8.1136  -8.1006  -8.0842  -8.0717
    -8.0663  -8.0437  -8.0401  -8.0143  -7.9679  -7.9587  -7.9413  -7.9312
    -7.8805  -7.8748  -7.8615  -7.8425  -7.8357  -7.8208  -7.8132  -7.8077
    -7.7964  -7.7820  -7.7651  -7.7322  -7.7300  -7.7162  -7.7048  -7.6873
    -7.6601  -7.6458  -7.6322  -7.6135  -7.6085  -7.5977  -7.5898  -7.5861
    -7.5662  -7.5595  -7.4926  -7.4407  -7.4252  -7.4101  -7.4009  -7.3932
    -7.3634  -7.3327  -7.3133  -7.2948  -7.2891  -7.2703  -7.2627  -7.2448
    -7.2335  -7.2296  -7.2079  -7.1979  -7.1660  -7.1617  -7.1416  -7.1218
    -7.1010  -7.0868  -7.0716  -7.0508  -7.0455  -7.0301  -6.9735  -6.9643
    -6.9551  -6.9529  -6.9409  -6.9292  -6.9159  -6.9132  -6.9036  -6.8955
    -6.8830  -6.8674  -6.8544  -6.8517  -6.8428  -6.8363  -6.8298  -6.8204
    -6.8133  -6.8034  -6.7984  -6.7824  -6.7764  -6.7644  -6.7493  -6.7199
    -6.7094  -6.6891  -6.6749  -6.6636  -6.6432  -6.6333  -6.6302  -6.6114
    -6.6077  -6.5683  -6.5576  -6.5489  -6.5231  -6.5076  -6.4968  -6.4917
    -6.4629  -6.4486  -6.4465  -6.4414  -6.4217  -6.4157  -6.4126  -6.3916
    -6.3895  -6.3790  -6.3614  -6.3482  -6.3173  -6.2973  -6.2911  -6.2855
    -6.2739  -6.2583  -6.2399  -6.2320  -6.2288  -6.2104  -6.1980  -6.1908
    -6.1748  -6.1559  -6.1361  -6.1187  -6.1110  -6.0864  -6.0749  -6.0696
    -6.0601  -6.0498  -6.0475  -6.0372  -6.0240  -6.0139  -5.9982  -5.9920
    -5.9671  -5.9553  -5.9453  -5.9391  -5.9344  -5.9285  -5.9206  -5.9086
    -5.8997  -5.8908  -5.8859  -5.8579  -5.8536  -5.8291  -5.8170  -5.7929
    -5.7674  -5.7593  -5.7390  -5.7197  -5.7101  -5.7034  -5.6905  -5.6607
    -5.6464  -5.6386  -5.6309  -5.6271  -5.6159  -5.6002  -5.5941  -5.5804
    -5.5690  -5.5584  -5.5333  -5.5003  -5.4703  -5.4620  -5.4591  -5.4507
    -5.4338  -5.4179  -5.3916  -5.3787  -5.3687  -5.3529  -5.3412  -5.3210
    -5.2931  -5.2861  -5.2773  -5.2618  -5.2513  -5.2397  -5.2258  -5.2106
    -5.2016  -5.1891  -5.1635  -5.1400  -5.1304  -5.1109  -5.0845  -5.0714
    -5.0557  -5.0322  -5.0273  -5.0163  -5.0005  -4.9896  -4.9714  -4.8934
    -4.8673  -4.8366  -4.8024  -4.7637  -4.7574  -4.7462  -4.7454  -4.6599
    -4.6571  -4.6502  -4.6246  -4.6166  -4.5966  -4.5750  -4.5718  -4.5609
    -4.5551  -4.5030  -4.4682  -4.4608  -4.3998  -4.3974  -4.2637  -4.2473
    -4.1447  -4.1387  -3.9935  -3.9681  -3.8293  -3.7484  -3.7479  -3.6533
    -3.6344  -3.6340  -3.6065  -3.5773  -3.5770  -2.5935  -2.5873  -2.2580
    -2.2317  -2.2152  -2.2007  -2.1974  -2.1597  -2.1534  -2.1214  -2.1042
    -2.0932  -2.0591  -2.0461  -1.9627  -1.9556  -1.9425  -1.9264  -1.9238
    -1.9115  -1.8927  -1.8864  -1.8714  -1.8546  -1.8448  -1.8280  -1.8125
    -1.8056  -1.8020  -1.7385  -1.7337  -1.7256  -1.6271  -1.5809  -1.5780
    -1.5345  -1.5268  -1.4781  -1.4748  -1.3183  -1.3036  -1.2927  -1.2563
    -1.1753  -1.0858  -1.0757  -1.0264  -1.0087  -1.0072  -0.8957  -0.8376
    -0.8351  -0.8056  -0.7986  -0.7581  -0.7577  -0.5031  -0.4956  -0.4578
    -0.4130  -0.4054  -0.4042  -0.3797  -0.3511  -0.3338  -0.2995  -0.2698
    -0.2542  -0.2449  -0.2367  -0.2285  -0.2129  -0.1902  -0.1893  -0.0140
     0.1232   0.1236   0.2843   0.2859   0.3048   0.4438   0.6155   0.6219
     0.8104   0.8665   0.8722   0.9176   0.9498   0.9823   1.0037   1.0164
     1.0511   1.1068   1.1523   1.1556   1.1623   1.2174   1.2698   1.2884
     1.3652   1.4456   1.4650   1.4729   1.5247   1.5338   1.6197   1.6229
     1.6419   1.6457

     occupation numbers 
     1.0000   1.0000   1.0000   1.0000   1.0000   1.0000   1.0000   1.0000
     1.0000   1.0000   1.0000   1.0000   1.0000   1.0000   1.0000   1.0000
     1.0000   1.0000   1.0000   1.0000   1.0000   1.0000   1.0000   1.0000
     1.0000   1.0000   1.0000   1.0000   1.0000   1.0000   1.0000   1.0000
     1.0000   1.0000   1.0000   1.0000   1.0000   1.0000   1.0000   1.0000
     1.0000   1.0000   1.0000   1.0000   1.0000   1.0000   1.0000   1.0000
     1.0000   1.0000   1.0000   1.0000   1.0000   1.0000   1.0000   1.0000
     1.0000   1.0000   1.0000   1.0000   1.0000   1.0000   1.0000   1.0000
     1.0000   1.0000   1.0000   1.0000   1.0000   1.0000   1.0000   1.0000
     1.0000   1.0000   1.0000   1.0000   1.0000   1.0000   1.0000   1.0000
     1.0000   1.0000   1.0000   1.0000   1.0000   1.0000   1.0000   1.0000
     1.0000   1.0000   1.0000   1.0000   1.0000   1.0000   1.0000   1.0000
     1.0000   1.0000   1.0000   1.0000   1.0000   1.0000   1.0000   1.0000
     1.0000   1.0000   1.0000   1.0000   1.0000   1.0000   1.0000   1.0000
     1.0000   1.0000   1.0000   1.0000   1.0000   1.0000   1.0000   1.0000
     1.0000   1.0000   1.0000   1.0000   1.0000   1.0000   1.0000   1.0000
     1.0000   1.0000   1.0000   1.0000   1.0000   1.0000   1.0000   1.0000
     1.0000   1.0000   1.0000   1.0000   1.0000   1.0000   1.0000   1.0000
     1.0000   1.0000   1.0000   1.0000   1.0000   1.0000   1.0000   1.0000
     1.0000   1.0000   1.0000   1.0000   1.0000   1.0000   1.0000   1.0000
     1.0000   1.0000   1.0000   1.0000   1.0000   1.0000   1.0000   1.0000
     1.0000   1.0000   1.0000   1.0000   1.0000   1.0000   1.0000   1.0000
     1.0000   1.0000   1.0000   1.0000   1.0000   1.0000   1.0000   1.0000
     1.0000   1.0000   1.0000   1.0000   1.0000   1.0000   1.0000   1.0000
     1.0000   1.0000   1.0000   1.0000   1.0000   1.0000   1.0000   1.0000
     1.0000   1.0000   1.0000   1.0000   1.0000   1.0000   1.0000   1.0000
     1.0000   1.0000   1.0000   1.0000   1.0000   1.0000   1.0000   1.0000
     1.0000   1.0000   1.0000   1.0000   1.0000   1.0000   1.0000   1.0000
     1.0000   1.0000   1.0000   1.0000   1.0000   1.0000   1.0000   1.0000
     1.0000   1.0000   1.0000   1.0000   1.0000   1.0000   1.0000   1.0000
     1.0000   1.0000   1.0000   1.0000   1.0000   1.0000   1.0000   1.0000
     1.0000   1.0000   1.0000   1.0000   1.0000   1.0000   1.0000   1.0000
     1.0000   1.0000   1.0000   1.0000   1.0000   1.0000   1.0000   1.0000
     1.0000   1.0000   1.0000   1.0000   1.0000   1.0000   1.0000   1.0000
     1.0000   1.0000   1.0000   1.0000   1.0000   1.0000   1.0000   1.0000
     1.0000   1.0000   1.0000   1.0000   1.0000   1.0000   1.0000   1.0000
     1.0000   1.0000   1.0000   1.0000   1.0000   1.0000   1.0000   1.0000
     1.0000   1.0000   1.0000   1.0000   1.0000   1.0000   1.0000   1.0000
     1.0000   1.0000   1.0000   1.0000   1.0000   1.0000   1.0000   1.0000
     1.0000   1.0000   1.0000   1.0000   1.0000   1.0000   1.0000   1.0000
     1.0000   1.0000   1.0000   1.0000   1.0000   1.0000   1.0000   1.0000
     1.0000   1.0000   1.0000   1.0000   1.0000   1.0000   1.0000   1.0000
     1.0000   1.0000   1.0000   1.0000   1.0000   1.0000   1.0000   1.0000
     1.0000   1.0000   1.0000   1.0000   1.0000   1.0000   1.0000   1.0000
     1.0000   1.0000   1.0000   1.0000   1.0000   1.0000   1.0000   1.0000
     1.0000   1.0000   1.0000   1.0000   1.0000   1.0000   1.0000   1.0000
     1.0000   1.0000   1.0000   1.0000   1.0000   1.0000   1.0000   1.0000
     1.0000   1.0000   1.0000   1.0000   1.0000   1.0000   1.0000   1.0000
     1.0000   1.0000   1.0000   1.0000   1.0000   1.0000   1.0000   1.0000
     1.0000   1.0000   1.0000   1.0000   1.0000   1.0000   1.0000   1.0000
     1.0000   1.0000   1.0000   1.0000   1.0000   1.0000   1.0000   1.0000
     1.0000   1.0000   1.0000   1.0000   1.0000   1.0000   1.0000   1.0000
     1.0000   1.0000   1.0000   1.0000   1.0000   1.0000   1.0000   1.0000
     1.0000   1.0000   1.0000   1.0000   1.0000   1.0000   1.0000   1.0000
     1.0000   1.0000   1.0000   1.0000   1.0000   1.0000   1.0000   1.0000
     1.0000   1.0000   1.0000   1.0000   1.0000   1.0000   1.0000   1.0000
     1.0000   1.0000   1.0000   1.0000   1.0000   1.0000   1.0000   1.0000
     1.0000   1.0000   1.0000   1.0000   1.0000   1.0000   1.0000   1.0000
     1.0000   1.0000   1.0000   1.0000   1.0000   1.0000   1.0000   1.0000
     1.0000   1.0000   1.0001   1.0001   1.0001   1.0001   1.0002   1.0002
     1.0004   1.0004   1.0005   1.0007   1.0008   1.0010   1.0013   1.0016
     1.0019   1.0023   1.0034   1.0047   1.0054   1.0070   1.0099   1.0116
     1.0139   1.0181   1.0191   1.0214   1.0251   1.0278   1.0328   1.0584
     1.0672   1.0760   1.0823   1.0818   1.0807   1.0779   1.0776   1.0125
     1.0089   0.9997   0.9602   0.9462   0.9079   0.8617   0.8545   0.8290
     0.8151   0.6797   0.5838   0.5632   0.4005   0.3945   0.1368   0.1165
     0.0367   0.0340   0.0041   0.0027   0.0002   0.0000   0.0000   0.0000
     0.0000   0.0000   0.0000   0.0000   0.0000   0.0000   0.0000   0.0000
     0.0000   0.0000   0.0000   0.0000   0.0000   0.0000   0.0000   0.0000
     0.0000   0.0000   0.0000   0.0000   0.0000   0.0000   0.0000   0.0000
     0.0000   0.0000   0.0000   0.0000   0.0000   0.0000   0.0000   0.0000
     0.0000   0.0000   0.0000   0.0000   0.0000   0.0000   0.0000   0.0000
     0.0000   0.0000   0.0000   0.0000   0.0000   0.0000   0.0000   0.0000
     0.0000   0.0000   0.0000   0.0000   0.0000   0.0000   0.0000   0.0000
     0.0000   0.0000   0.0000   0.0000   0.0000   0.0000   0.0000   0.0000
     0.0000   0.0000   0.0000   0.0000   0.0000   0.0000   0.0000   0.0000
     0.0000   0.0000   0.0000   0.0000   0.0000   0.0000   0.0000   0.0000
     0.0000   0.0000   0.0000   0.0000   0.0000   0.0000   0.0000   0.0000
     0.0000   0.0000   0.0000   0.0000   0.0000   0.0000   0.0000   0.0000
     0.0000   0.0000   0.0000   0.0000   0.0000   0.0000   0.0000   0.0000
     0.0000   0.0000   0.0000   0.0000   0.0000   0.0000   0.0000   0.0000
     0.0000   0.0000

          k = 0.3333 0.5774 0.0000 (319908 PWs)   bands (ev):

   -59.6502 -59.6460 -59.6447 -59.6096 -59.6084 -59.6078 -59.5901 -59.5882
   -59.5867 -59.5842 -59.5835 -59.5828 -59.5767 -59.5763 -59.5756 -59.5662
   -35.7874 -35.7870 -35.7838 -35.7685 -35.7551 -35.7531 -35.7499 -35.7476
   -35.7430 -35.7346 -35.7170 -35.7091 -35.7033 -35.6990 -35.6862 -35.6841
   -35.6752 -35.6658 -35.6615 -35.6608 -35.6598 -35.6492 -35.6487 -35.6401
   -35.6387 -35.6363 -35.6321 -35.6315 -35.6306 -35.6288 -35.6271 -35.6228
   -35.6210 -35.6174 -35.6141 -35.6135 -35.6121 -35.6104 -35.6069 -35.6032
   -35.6011 -35.5997 -35.5984 -35.5957 -35.5950 -35.5921 -35.5895 -35.5885
   -23.6632 -23.6555 -23.6046 -23.1971 -23.1916 -23.1835 -22.9204 -22.9191
   -22.8846 -22.6458 -22.6238 -22.6209 -22.6130 -22.5892 -22.5563 -22.2986
   -22.2923 -22.2683 -22.1704 -22.1610 -22.1420 -22.0343 -22.0208 -22.0151
   -21.9914 -21.9901 -21.9816 -21.9497 -21.9400 -21.9252 -21.8469 -21.8453
   -21.8429 -21.8297 -21.8263 -21.8186 -21.7089 -21.7029 -21.7010 -21.6997
   -21.6679 -21.6632 -21.6166 -21.6159 -21.5836 -21.5218 -21.5104 -21.5050
   -21.4953 -21.4834 -21.4763 -21.4651 -21.4589 -21.4402 -21.4052 -21.3810
   -21.3777 -21.3677 -21.3512 -21.3467 -21.3259 -21.3158 -21.3111 -21.2756
   -21.2674 -21.2609 -21.0826 -21.0812 -21.0751 -21.0309 -21.0253 -21.0248
   -21.0074 -21.0059 -21.0056 -20.9302 -20.9267 -20.9258 -20.9068 -20.9037
   -20.9021 -17.6707 -17.6397 -17.6358 -17.1745 -17.1687 -17.1682 -16.9147
   -16.8828 -16.8811 -16.8296 -16.8284 -16.8142 -16.7698 -16.7427 -16.7369
   -16.6618 -16.5973 -16.5905 -16.5451 -16.5429 -16.5412 -16.5273 -16.4394
   -16.4295 -16.4287 -16.3972 -16.3917 -16.3862 -16.3219 -16.2918 -16.2886
   -16.2542 -11.0193 -11.0187 -11.0148 -10.9865 -10.9803 -10.9515 -10.7528
   -10.7469 -10.7397 -10.7359 -10.7314 -10.7238 -10.7156 -10.7122 -10.7107
   -10.6961 -10.6756 -10.6732 -10.4618 -10.4616 -10.4306 -10.3689 -10.3622
   -10.3425 -10.2694 -10.2625 -10.2589 -10.2427 -10.2424 -10.2277 -10.2169
   -10.2086 -10.1938  -9.9078  -9.9065  -9.9023  -9.7527  -9.7466  -9.7420
    -9.5824  -9.5801  -9.5652  -9.4995  -9.4883  -9.4828  -9.2847  -9.2783
    -9.2635  -9.2551  -9.2546  -9.2426  -9.1131  -9.1056  -9.1039  -9.0977
    -9.0954  -9.0870  -9.0853  -9.0812  -9.0704  -9.0441  -9.0432  -9.0375
    -8.9597  -8.9534  -8.9518  -8.8985  -8.8836  -8.8772  -8.8584  -8.8484
    -8.8483  -8.7941  -8.7913  -8.7738  -8.7730  -8.7643  -8.7551  -8.6395
    -8.6394  -8.6323  -8.6223  -8.6213  -8.6141  -8.6021  -8.5356  -8.5355
    -8.5328  -8.5190  -8.5170  -8.5157  -8.5043  -8.5027  -8.4971  -8.4009
    -8.3960  -8.3718  -8.3520  -8.3474  -8.3185  -8.2314  -8.1764  -8.1616
    -8.1424  -8.1407  -8.1366  -8.1253  -8.0699  -8.0399  -8.0368  -8.0204
    -8.0161  -8.0132  -7.9714  -7.9636  -7.9513  -7.9335  -7.9293  -7.9242
    -7.8994  -7.8971  -7.8922  -7.8803  -7.8719  -7.8609  -7.8439  -7.8428
    -7.8300  -7.8206  -7.8201  -7.8029  -7.7648  -7.7410  -7.7045  -7.6733
    -7.6575  -7.6431  -7.6395  -7.5847  -7.5697  -7.5660  -7.5535  -7.5514
    -7.5227  -7.4854  -7.4836  -7.4780  -7.4697  -7.3691  -7.3612  -7.3495
    -7.3399  -7.3392  -7.3298  -7.3250  -7.3197  -7.3152  -7.3064  -7.3030
    -7.2989  -7.2456  -7.2386  -7.2323  -7.1574  -7.1565  -7.1468  -7.0937
    -7.0794  -7.0476  -7.0465  -7.0423  -7.0383  -7.0311  -7.0283  -7.0266
    -6.9883  -6.9873  -6.9781  -6.9170  -6.9155  -6.9146  -6.9058  -6.8963
    -6.8819  -6.8673  -6.8607  -6.8572  -6.8327  -6.8253  -6.8147  -6.8033
    -6.8024  -6.8005  -6.7803  -6.7732  -6.7642  -6.7397  -6.7392  -6.7377
    -6.7218  -6.7008  -6.6972  -6.6846  -6.6823  -6.6785  -6.6597  -6.5856
    -6.5743  -6.5506  -6.5468  -6.5388  -6.5252  -6.4874  -6.4828  -6.4802
    -6.4618  -6.4490  -6.4434  -6.4055  -6.4017  -6.3893  -6.3700  -6.3596
    -6.3528  -6.3484  -6.3459  -6.3398  -6.2808  -6.2729  -6.2666  -6.2565
    -6.2461  -6.2441  -6.2300  -6.2222  -6.2151  -6.1959  -6.1846  -6.1841
    -6.1030  -6.0908  -6.0900  -6.0899  -6.0692  -6.0687  -6.0654  -6.0549
    -6.0547  -6.0545  -6.0400  -6.0356  -6.0174  -6.0047  -6.0027  -5.9952
    -5.9945  -5.9829  -5.9398  -5.9317  -5.9204  -5.9001  -5.8990  -5.8761
    -5.8746  -5.8635  -5.8510  -5.8506  -5.8293  -5.8257  -5.8146  -5.8030
    -5.7989  -5.7930  -5.7763  -5.7655  -5.7572  -5.7479  -5.7292  -5.7250
    -5.7189  -5.7150  -5.7035  -5.6628  -5.6437  -5.6284  -5.6183  -5.6149
    -5.5895  -5.5772  -5.5595  -5.5556  -5.5250  -5.4710  -5.4669  -5.4541
    -5.4420  -5.4354  -5.4111  -5.4088  -5.3817  -5.3477  -5.3435  -5.3355
    -5.2962  -5.2857  -5.2836  -5.2562  -5.2422  -5.2415  -5.2160  -5.2030
    -5.1985  -5.1687  -5.1552  -5.1532  -5.1287  -5.1172  -5.1091  -5.0368
    -5.0342  -5.0315  -5.0037  -4.9689  -4.9458  -4.9323  -4.9225  -4.9165
    -4.8064  -4.7956  -4.7908  -4.7846  -4.7808  -4.7705  -4.7161  -4.7160
    -4.7090  -4.6180  -4.6091  -4.6077  -4.5932  -4.5832  -4.5766  -4.5573
    -4.5533  -4.5525  -4.5155  -4.5140  -4.5130  -4.2867  -4.2762  -4.2615
    -3.9656  -3.9380  -3.9099  -3.9068  -3.8423  -3.8363  -3.8187  -3.6496
    -3.6491  -3.6434  -3.5878  -3.5869  -3.5805  -2.8277  -2.4011  -2.3759
    -2.3573  -2.2317  -2.2194  -2.2049  -2.1790  -2.1668  -2.1556  -2.1277
    -2.1207  -2.1057  -2.0066  -1.9981  -1.9764  -1.9459  -1.9262  -1.9142
    -1.9070  -1.8904  -1.8723  -1.8579  -1.8540  -1.8487  -1.8393  -1.8356
    -1.8019  -1.8018  -1.7909  -1.7789  -1.6985  -1.6704  -1.6615  -1.5768
    -1.5222  -1.5169  -1.2669  -1.2655  -1.2583  -1.2467  -1.2299  -1.1859
    -1.1219  -1.1219  -1.1206  -1.0950  -1.0780  -1.0691  -1.0460  -1.0031
    -0.8842  -0.8278  -0.8099  -0.5186  -0.4704  -0.4503  -0.4084  -0.4082
    -0.4079  -0.4055  -0.4010  -0.3699  -0.3527  -0.3495  -0.3481  -0.3477
    -0.3381  -0.3319  -0.3077  -0.2996  -0.2829  -0.1929  -0.0786  -0.0785
    -0.0769   0.3035   0.3042   0.3045   0.7123   0.7123   0.7127   0.7645
     0.7647   0.7755   0.9616   1.0040   1.0779   1.0788   1.0789   1.1105
     1.1146   1.1155   1.1454   1.1540   1.1834   1.2306   1.2386   1.2545
     1.2722   1.2757   1.2758   1.2766   1.3021   1.3574   1.3584   1.3594
     1.5033   1.5923

     occupation numbers 
     1.0000   1.0000   1.0000   1.0000   1.0000   1.0000   1.0000   1.0000
     1.0000   1.0000   1.0000   1.0000   1.0000   1.0000   1.0000   1.0000
     1.0000   1.0000   1.0000   1.0000   1.0000   1.0000   1.0000   1.0000
     1.0000   1.0000   1.0000   1.0000   1.0000   1.0000   1.0000   1.0000
     1.0000   1.0000   1.0000   1.0000   1.0000   1.0000   1.0000   1.0000
     1.0000   1.0000   1.0000   1.0000   1.0000   1.0000   1.0000   1.0000
     1.0000   1.0000   1.0000   1.0000   1.0000   1.0000   1.0000   1.0000
     1.0000   1.0000   1.0000   1.0000   1.0000   1.0000   1.0000   1.0000
     1.0000   1.0000   1.0000   1.0000   1.0000   1.0000   1.0000   1.0000
     1.0000   1.0000   1.0000   1.0000   1.0000   1.0000   1.0000   1.0000
     1.0000   1.0000   1.0000   1.0000   1.0000   1.0000   1.0000   1.0000
     1.0000   1.0000   1.0000   1.0000   1.0000   1.0000   1.0000   1.0000
     1.0000   1.0000   1.0000   1.0000   1.0000   1.0000   1.0000   1.0000
     1.0000   1.0000   1.0000   1.0000   1.0000   1.0000   1.0000   1.0000
     1.0000   1.0000   1.0000   1.0000   1.0000   1.0000   1.0000   1.0000
     1.0000   1.0000   1.0000   1.0000   1.0000   1.0000   1.0000   1.0000
     1.0000   1.0000   1.0000   1.0000   1.0000   1.0000   1.0000   1.0000
     1.0000   1.0000   1.0000   1.0000   1.0000   1.0000   1.0000   1.0000
     1.0000   1.0000   1.0000   1.0000   1.0000   1.0000   1.0000   1.0000
     1.0000   1.0000   1.0000   1.0000   1.0000   1.0000   1.0000   1.0000
     1.0000   1.0000   1.0000   1.0000   1.0000   1.0000   1.0000   1.0000
     1.0000   1.0000   1.0000   1.0000   1.0000   1.0000   1.0000   1.0000
     1.0000   1.0000   1.0000   1.0000   1.0000   1.0000   1.0000   1.0000
     1.0000   1.0000   1.0000   1.0000   1.0000   1.0000   1.0000   1.0000
     1.0000   1.0000   1.0000   1.0000   1.0000   1.0000   1.0000   1.0000
     1.0000   1.0000   1.0000   1.0000   1.0000   1.0000   1.0000   1.0000
     1.0000   1.0000   1.0000   1.0000   1.0000   1.0000   1.0000   1.0000
     1.0000   1.0000   1.0000   1.0000   1.0000   1.0000   1.0000   1.0000
     1.0000   1.0000   1.0000   1.0000   1.0000   1.0000   1.0000   1.0000
     1.0000   1.0000   1.0000   1.0000   1.0000   1.0000   1.0000   1.0000
     1.0000   1.0000   1.0000   1.0000   1.0000   1.0000   1.0000   1.0000
     1.0000   1.0000   1.0000   1.0000   1.0000   1.0000   1.0000   1.0000
     1.0000   1.0000   1.0000   1.0000   1.0000   1.0000   1.0000   1.0000
     1.0000   1.0000   1.0000   1.0000   1.0000   1.0000   1.0000   1.0000
     1.0000   1.0000   1.0000   1.0000   1.0000   1.0000   1.0000   1.0000
     1.0000   1.0000   1.0000   1.0000   1.0000   1.0000   1.0000   1.0000
     1.0000   1.0000   1.0000   1.0000   1.0000   1.0000   1.0000   1.0000
     1.0000   1.0000   1.0000   1.0000   1.0000   1.0000   1.0000   1.0000
     1.0000   1.0000   1.0000   1.0000   1.0000   1.0000   1.0000   1.0000
     1.0000   1.0000   1.0000   1.0000   1.0000   1.0000   1.0000   1.0000
     1.0000   1.0000   1.0000   1.0000   1.0000   1.0000   1.0000   1.0000
     1.0000   1.0000   1.0000   1.0000   1.0000   1.0000   1.0000   1.0000
     1.0000   1.0000   1.0000   1.0000   1.0000   1.0000   1.0000   1.0000
     1.0000   1.0000   1.0000   1.0000   1.0000   1.0000   1.0000   1.0000
     1.0000   1.0000   1.0000   1.0000   1.0000   1.0000   1.0000   1.0000
     1.0000   1.0000   1.0000   1.0000   1.0000   1.0000   1.0000   1.0000
     1.0000   1.0000   1.0000   1.0000   1.0000   1.0000   1.0000   1.0000
     1.0000   1.0000   1.0000   1.0000   1.0000   1.0000   1.0000   1.0000
     1.0000   1.0000   1.0000   1.0000   1.0000   1.0000   1.0000   1.0000
     1.0000   1.0000   1.0000   1.0000   1.0000   1.0000   1.0000   1.0000
     1.0000   1.0000   1.0000   1.0000   1.0000   1.0000   1.0000   1.0000
     1.0000   1.0000   1.0000   1.0000   1.0000   1.0000   1.0000   1.0000
     1.0000   1.0000   1.0000   1.0000   1.0000   1.0000   1.0000   1.0000
     1.0000   1.0000   1.0000   1.0000   1.0000   1.0000   1.0000   1.0000
     1.0000   1.0000   1.0000   1.0000   1.0000   1.0000   1.0000   1.0000
     1.0000   1.0000   1.0000   1.0000   1.0000   1.0000   1.0000   1.0000
     1.0000   1.0000   1.0000   1.0000   1.0000   1.0000   1.0000   1.0000
     1.0000   1.0000   1.0000   1.0000   1.0000   1.0000   1.0000   1.0000
     1.0000   1.0000   1.0000   1.0000   1.0000   1.0000   1.0000   1.0000
     1.0000   1.0000   1.0000   1.0000   1.0001   1.0001   1.0001   1.0002
     1.0004   1.0004   1.0005   1.0008   1.0010   1.0010   1.0015   1.0018
     1.0020   1.0031   1.0038   1.0039   1.0055   1.0065   1.0072   1.0172
     1.0177   1.0182   1.0243   1.0336   1.0407   1.0451   1.0484   1.0504
     1.0819   1.0829   1.0832   1.0833   1.0833   1.0826   1.0644   1.0643
     1.0599   0.9486   0.9324   0.9297   0.9011   0.8798   0.8653   0.8205
     0.8108   0.8087   0.7136   0.7096   0.7069   0.1693   0.1538   0.1339
     0.0025   0.0016   0.0009   0.0009   0.0002   0.0002   0.0002   0.0000
     0.0000   0.0000   0.0000   0.0000   0.0000   0.0000   0.0000   0.0000
     0.0000   0.0000   0.0000   0.0000   0.0000   0.0000   0.0000   0.0000
     0.0000   0.0000   0.0000   0.0000   0.0000   0.0000   0.0000   0.0000
     0.0000   0.0000   0.0000   0.0000   0.0000   0.0000   0.0000   0.0000
     0.0000   0.0000   0.0000   0.0000   0.0000   0.0000   0.0000   0.0000
     0.0000   0.0000   0.0000   0.0000   0.0000   0.0000   0.0000   0.0000
     0.0000   0.0000   0.0000   0.0000   0.0000   0.0000   0.0000   0.0000
     0.0000   0.0000   0.0000   0.0000   0.0000   0.0000   0.0000   0.0000
     0.0000   0.0000   0.0000   0.0000   0.0000   0.0000   0.0000   0.0000
     0.0000   0.0000   0.0000   0.0000   0.0000   0.0000   0.0000   0.0000
     0.0000   0.0000   0.0000   0.0000   0.0000   0.0000   0.0000   0.0000
     0.0000   0.0000   0.0000   0.0000   0.0000   0.0000   0.0000   0.0000
     0.0000   0.0000   0.0000   0.0000   0.0000   0.0000   0.0000   0.0000
     0.0000   0.0000   0.0000   0.0000   0.0000   0.0000   0.0000   0.0000
     0.0000   0.0000

          k = 0.3333-0.1925 0.0000 (319990 PWs)   bands (ev):

   -59.6502 -59.6460 -59.6447 -59.6096 -59.6085 -59.6078 -59.5902 -59.5877
   -59.5870 -59.5846 -59.5832 -59.5829 -59.5767 -59.5762 -59.5757 -59.5662
   -35.7902 -35.7900 -35.7867 -35.7670 -35.7581 -35.7520 -35.7516 -35.7373
   -35.7363 -35.7321 -35.7198 -35.7113 -35.6994 -35.6932 -35.6833 -35.6773
   -35.6763 -35.6753 -35.6677 -35.6612 -35.6601 -35.6564 -35.6509 -35.6435
   -35.6381 -35.6368 -35.6358 -35.6347 -35.6313 -35.6301 -35.6252 -35.6219
   -35.6201 -35.6149 -35.6136 -35.6125 -35.6107 -35.6075 -35.6070 -35.6027
   -35.6014 -35.5987 -35.5966 -35.5964 -35.5952 -35.5928 -35.5886 -35.5865
   -23.7530 -23.5899 -23.4335 -23.4260 -23.1514 -23.1457 -23.0244 -22.9065
   -22.9060 -22.6825 -22.5676 -22.5476 -22.4733 -22.4693 -22.4369 -22.4264
   -22.3762 -22.3748 -22.1889 -22.1831 -22.1689 -22.1634 -22.0760 -22.0140
   -22.0105 -21.9691 -21.9595 -21.9038 -21.8918 -21.8835 -21.8693 -21.8454
   -21.8145 -21.8079 -21.7857 -21.7517 -21.7419 -21.7210 -21.6926 -21.6853
   -21.6654 -21.6522 -21.6473 -21.5977 -21.5705 -21.5658 -21.5625 -21.4991
   -21.4895 -21.4728 -21.4618 -21.4582 -21.4470 -21.4358 -21.4235 -21.4024
   -21.4016 -21.3826 -21.3648 -21.3438 -21.3395 -21.3339 -21.3212 -21.2250
   -21.1851 -21.1837 -21.1413 -21.1389 -21.0732 -21.0723 -21.0158 -21.0136
   -20.9923 -20.9913 -20.9780 -20.9596 -20.9533 -20.9510 -20.9100 -20.8820
   -20.8718 -17.7780 -17.5882 -17.4207 -17.4105 -17.1349 -17.1271 -17.0152
   -16.9170 -16.9081 -16.8070 -16.7739 -16.7320 -16.7244 -16.7030 -16.6871
   -16.6553 -16.6501 -16.6436 -16.5692 -16.5664 -16.5286 -16.5273 -16.4801
   -16.4362 -16.4327 -16.3759 -16.3546 -16.3443 -16.3348 -16.3178 -16.2751
   -16.2738 -11.1092 -11.0494 -10.9877 -10.9818 -10.9785 -10.9162 -10.9130
   -10.7920 -10.7501 -10.7406 -10.7098 -10.6993 -10.6948 -10.6919 -10.6671
   -10.6066 -10.5845 -10.5781 -10.5503 -10.4804 -10.4654 -10.4018 -10.3701
   -10.3298 -10.2958 -10.2666 -10.2435 -10.2170 -10.2016 -10.1839 -10.1452
   -10.0985 -10.0651 -10.0515 -10.0069  -9.8889  -9.7848  -9.6934  -9.6790
    -9.6048  -9.5963  -9.5827  -9.5689  -9.5313  -9.4809  -9.3382  -9.3347
    -9.3131  -9.2869  -9.2643  -9.2534  -9.2398  -9.1995  -9.1815  -9.1363
    -9.1308  -9.0844  -9.0742  -9.0657  -9.0575  -9.0434  -9.0088  -8.9921
    -8.9845  -8.9686  -8.9554  -8.9218  -8.8924  -8.8681  -8.8529  -8.8331
    -8.7916  -8.7879  -8.7675  -8.7426  -8.7398  -8.7119  -8.6770  -8.6715
    -8.6655  -8.6132  -8.6010  -8.5895  -8.5705  -8.5559  -8.5166  -8.5036
    -8.4996  -8.4881  -8.4858  -8.4822  -8.4753  -8.4703  -8.4614  -8.4169
    -8.3638  -8.3031  -8.2865  -8.2736  -8.2608  -8.2458  -8.2335  -8.2284
    -8.1965  -8.1854  -8.1803  -8.1637  -8.1136  -8.1006  -8.0843  -8.0715
    -8.0663  -8.0438  -8.0401  -8.0143  -7.9680  -7.9587  -7.9412  -7.9313
    -7.8807  -7.8747  -7.8616  -7.8425  -7.8357  -7.8207  -7.8133  -7.8077
    -7.7964  -7.7820  -7.7651  -7.7323  -7.7300  -7.7161  -7.7049  -7.6873
    -7.6602  -7.6458  -7.6321  -7.6136  -7.6086  -7.5977  -7.5898  -7.5862
    -7.5661  -7.5597  -7.4926  -7.4407  -7.4251  -7.4101  -7.4009  -7.3933
    -7.3634  -7.3327  -7.3133  -7.2948  -7.2891  -7.2703  -7.2627  -7.2449
    -7.2335  -7.2297  -7.2079  -7.1979  -7.1661  -7.1618  -7.1416  -7.1218
    -7.1010  -7.0868  -7.0715  -7.0508  -7.0455  -7.0301  -6.9735  -6.9644
    -6.9550  -6.9527  -6.9409  -6.9291  -6.9160  -6.9131  -6.9035  -6.8958
    -6.8829  -6.8673  -6.8544  -6.8518  -6.8427  -6.8364  -6.8297  -6.8205
    -6.8134  -6.8034  -6.7985  -6.7824  -6.7764  -6.7642  -6.7493  -6.7199
    -6.7093  -6.6891  -6.6750  -6.6636  -6.6431  -6.6333  -6.6302  -6.6113
    -6.6078  -6.5683  -6.5576  -6.5488  -6.5231  -6.5074  -6.4969  -6.4918
    -6.4629  -6.4486  -6.4466  -6.4414  -6.4217  -6.4157  -6.4126  -6.3917
    -6.3895  -6.3789  -6.3615  -6.3482  -6.3173  -6.2973  -6.2909  -6.2856
    -6.2740  -6.2580  -6.2397  -6.2323  -6.2290  -6.2103  -6.1980  -6.1909
    -6.1748  -6.1560  -6.1361  -6.1187  -6.1110  -6.0863  -6.0749  -6.0695
    -6.0602  -6.0498  -6.0476  -6.0372  -6.0239  -6.0140  -5.9982  -5.9920
    -5.9671  -5.9553  -5.9453  -5.9391  -5.9343  -5.9286  -5.9206  -5.9084
    -5.8999  -5.8908  -5.8859  -5.8579  -5.8536  -5.8292  -5.8170  -5.7929
    -5.7673  -5.7594  -5.7391  -5.7198  -5.7102  -5.7035  -5.6905  -5.6606
    -5.6464  -5.6385  -5.6309  -5.6272  -5.6158  -5.6002  -5.5942  -5.5804
    -5.5690  -5.5582  -5.5335  -5.5001  -5.4703  -5.4620  -5.4591  -5.4509
    -5.4338  -5.4179  -5.3915  -5.3783  -5.3689  -5.3530  -5.3413  -5.3208
    -5.2931  -5.2862  -5.2772  -5.2617  -5.2512  -5.2398  -5.2258  -5.2107
    -5.2016  -5.1890  -5.1635  -5.1401  -5.1304  -5.1108  -5.0845  -5.0714
    -5.0558  -5.0323  -5.0271  -5.0164  -5.0005  -4.9897  -4.9714  -4.8935
    -4.8673  -4.8366  -4.8024  -4.7637  -4.7574  -4.7462  -4.7454  -4.6598
    -4.6571  -4.6502  -4.6246  -4.6167  -4.5966  -4.5750  -4.5718  -4.5610
    -4.5549  -4.5030  -4.4681  -4.4607  -4.3998  -4.3974  -4.2637  -4.2473
    -4.1450  -4.1383  -3.9935  -3.9681  -3.8293  -3.7484  -3.7479  -3.6533
    -3.6344  -3.6340  -3.6065  -3.5773  -3.5770  -2.5935  -2.5874  -2.2577
    -2.2319  -2.2154  -2.2009  -2.1973  -2.1594  -2.1536  -2.1214  -2.1045
    -2.0930  -2.0592  -2.0459  -1.9626  -1.9556  -1.9425  -1.9262  -1.9240
    -1.9115  -1.8925  -1.8865  -1.8713  -1.8552  -1.8447  -1.8280  -1.8124
    -1.8057  -1.8019  -1.7383  -1.7337  -1.7258  -1.6271  -1.5804  -1.5785
    -1.5345  -1.5269  -1.4784  -1.4745  -1.3183  -1.3036  -1.2926  -1.2564
    -1.1753  -1.0859  -1.0757  -1.0264  -1.0084  -1.0074  -0.8958  -0.8374
    -0.8353  -0.8057  -0.7985  -0.7581  -0.7577  -0.5034  -0.4953  -0.4578
    -0.4130  -0.4054  -0.4042  -0.3797  -0.3511  -0.3339  -0.2995  -0.2700
    -0.2538  -0.2451  -0.2367  -0.2285  -0.2129  -0.1902  -0.1893  -0.0140
     0.1232   0.1236   0.2843   0.2859   0.3048   0.4438   0.6155   0.6219
     0.8104   0.8665   0.8722   0.9177   0.9499   0.9823   1.0037   1.0164
     1.0511   1.1068   1.1523   1.1555   1.1623   1.2174   1.2698   1.2885
     1.3654   1.4456   1.4649   1.4729   1.5247   1.5338   1.6196   1.6229
     1.6419   1.6457

     occupation numbers 
     1.0000   1.0000   1.0000   1.0000   1.0000   1.0000   1.0000   1.0000
     1.0000   1.0000   1.0000   1.0000   1.0000   1.0000   1.0000   1.0000
     1.0000   1.0000   1.0000   1.0000   1.0000   1.0000   1.0000   1.0000
     1.0000   1.0000   1.0000   1.0000   1.0000   1.0000   1.0000   1.0000
     1.0000   1.0000   1.0000   1.0000   1.0000   1.0000   1.0000   1.0000
     1.0000   1.0000   1.0000   1.0000   1.0000   1.0000   1.0000   1.0000
     1.0000   1.0000   1.0000   1.0000   1.0000   1.0000   1.0000   1.0000
     1.0000   1.0000   1.0000   1.0000   1.0000   1.0000   1.0000   1.0000
     1.0000   1.0000   1.0000   1.0000   1.0000   1.0000   1.0000   1.0000
     1.0000   1.0000   1.0000   1.0000   1.0000   1.0000   1.0000   1.0000
     1.0000   1.0000   1.0000   1.0000   1.0000   1.0000   1.0000   1.0000
     1.0000   1.0000   1.0000   1.0000   1.0000   1.0000   1.0000   1.0000
     1.0000   1.0000   1.0000   1.0000   1.0000   1.0000   1.0000   1.0000
     1.0000   1.0000   1.0000   1.0000   1.0000   1.0000   1.0000   1.0000
     1.0000   1.0000   1.0000   1.0000   1.0000   1.0000   1.0000   1.0000
     1.0000   1.0000   1.0000   1.0000   1.0000   1.0000   1.0000   1.0000
     1.0000   1.0000   1.0000   1.0000   1.0000   1.0000   1.0000   1.0000
     1.0000   1.0000   1.0000   1.0000   1.0000   1.0000   1.0000   1.0000
     1.0000   1.0000   1.0000   1.0000   1.0000   1.0000   1.0000   1.0000
     1.0000   1.0000   1.0000   1.0000   1.0000   1.0000   1.0000   1.0000
     1.0000   1.0000   1.0000   1.0000   1.0000   1.0000   1.0000   1.0000
     1.0000   1.0000   1.0000   1.0000   1.0000   1.0000   1.0000   1.0000
     1.0000   1.0000   1.0000   1.0000   1.0000   1.0000   1.0000   1.0000
     1.0000   1.0000   1.0000   1.0000   1.0000   1.0000   1.0000   1.0000
     1.0000   1.0000   1.0000   1.0000   1.0000   1.0000   1.0000   1.0000
     1.0000   1.0000   1.0000   1.0000   1.0000   1.0000   1.0000   1.0000
     1.0000   1.0000   1.0000   1.0000   1.0000   1.0000   1.0000   1.0000
     1.0000   1.0000   1.0000   1.0000   1.0000   1.0000   1.0000   1.0000
     1.0000   1.0000   1.0000   1.0000   1.0000   1.0000   1.0000   1.0000
     1.0000   1.0000   1.0000   1.0000   1.0000   1.0000   1.0000   1.0000
     1.0000   1.0000   1.0000   1.0000   1.0000   1.0000   1.0000   1.0000
     1.0000   1.0000   1.0000   1.0000   1.0000   1.0000   1.0000   1.0000
     1.0000   1.0000   1.0000   1.0000   1.0000   1.0000   1.0000   1.0000
     1.0000   1.0000   1.0000   1.0000   1.0000   1.0000   1.0000   1.0000
     1.0000   1.0000   1.0000   1.0000   1.0000   1.0000   1.0000   1.0000
     1.0000   1.0000   1.0000   1.0000   1.0000   1.0000   1.0000   1.0000
     1.0000   1.0000   1.0000   1.0000   1.0000   1.0000   1.0000   1.0000
     1.0000   1.0000   1.0000   1.0000   1.0000   1.0000   1.0000   1.0000
     1.0000   1.0000   1.0000   1.0000   1.0000   1.0000   1.0000   1.0000
     1.0000   1.0000   1.0000   1.0000   1.0000   1.0000   1.0000   1.0000
     1.0000   1.0000   1.0000   1.0000   1.0000   1.0000   1.0000   1.0000
     1.0000   1.0000   1.0000   1.0000   1.0000   1.0000   1.0000   1.0000
     1.0000   1.0000   1.0000   1.0000   1.0000   1.0000   1.0000   1.0000
     1.0000   1.0000   1.0000   1.0000   1.0000   1.0000   1.0000   1.0000
     1.0000   1.0000   1.0000   1.0000   1.0000   1.0000   1.0000   1.0000
     1.0000   1.0000   1.0000   1.0000   1.0000   1.0000   1.0000   1.0000
     1.0000   1.0000   1.0000   1.0000   1.0000   1.0000   1.0000   1.0000
     1.0000   1.0000   1.0000   1.0000   1.0000   1.0000   1.0000   1.0000
     1.0000   1.0000   1.0000   1.0000   1.0000   1.0000   1.0000   1.0000
     1.0000   1.0000   1.0000   1.0000   1.0000   1.0000   1.0000   1.0000
     1.0000   1.0000   1.0000   1.0000   1.0000   1.0000   1.0000   1.0000
     1.0000   1.0000   1.0000   1.0000   1.0000   1.0000   1.0000   1.0000
     1.0000   1.0000   1.0000   1.0000   1.0000   1.0000   1.0000   1.0000
     1.0000   1.0000   1.0000   1.0000   1.0000   1.0000   1.0000   1.0000
     1.0000   1.0000   1.0000   1.0000   1.0000   1.0000   1.0000   1.0000
     1.0000   1.0000   1.0000   1.0000   1.0000   1.0000   1.0000   1.0000
     1.0000   1.0000   1.0000   1.0000   1.0000   1.0000   1.0000   1.0000
     1.0000   1.0000   1.0000   1.0000   1.0000   1.0000   1.0000   1.0000
     1.0000   1.0000   1.0000   1.0000   1.0000   1.0000   1.0000   1.0000
     1.0000   1.0000   1.0001   1.0001   1.0001   1.0001   1.0002   1.0002
     1.0004   1.0004   1.0005   1.0007   1.0008   1.0010   1.0013   1.0016
     1.0019   1.0023   1.0034   1.0047   1.0054   1.0070   1.0099   1.0116
     1.0139   1.0181   1.0191   1.0214   1.0251   1.0278   1.0329   1.0584
     1.0672   1.0760   1.0823   1.0818   1.0807   1.0778   1.0776   1.0124
     1.0089   0.9997   0.9602   0.9463   0.9079   0.8618   0.8544   0.8293
     0.8147   0.6797   0.5836   0.5631   0.4007   0.3946   0.1367   0.1166
     0.0369   0.0339   0.0041   0.0027   0.0002   0.0000   0.0000   0.0000
     0.0000   0.0000   0.0000   0.0000   0.0000   0.0000   0.0000   0.0000
     0.0000   0.0000   0.0000   0.0000   0.0000   0.0000   0.0000   0.0000
     0.0000   0.0000   0.0000   0.0000   0.0000   0.0000   0.0000   0.0000
     0.0000   0.0000   0.0000   0.0000   0.0000   0.0000   0.0000   0.0000
     0.0000   0.0000   0.0000   0.0000   0.0000   0.0000   0.0000   0.0000
     0.0000   0.0000   0.0000   0.0000   0.0000   0.0000   0.0000   0.0000
     0.0000   0.0000   0.0000   0.0000   0.0000   0.0000   0.0000   0.0000
     0.0000   0.0000   0.0000   0.0000   0.0000   0.0000   0.0000   0.0000
     0.0000   0.0000   0.0000   0.0000   0.0000   0.0000   0.0000   0.0000
     0.0000   0.0000   0.0000   0.0000   0.0000   0.0000   0.0000   0.0000
     0.0000   0.0000   0.0000   0.0000   0.0000   0.0000   0.0000   0.0000
     0.0000   0.0000   0.0000   0.0000   0.0000   0.0000   0.0000   0.0000
     0.0000   0.0000   0.0000   0.0000   0.0000   0.0000   0.0000   0.0000
     0.0000   0.0000   0.0000   0.0000   0.0000   0.0000   0.0000   0.0000
     0.0000   0.0000

     the Fermi energy is    -4.3998 ev

!    total energy              =  -12271.35570899 Ry
     estimated scf accuracy    <          9.9E-09 Ry
     smearing contrib. (-TS)   =       0.03624726 Ry
     internal energy E=F+TS    =  -12271.39195625 Ry

     The total energy is F=E-TS. E is the sum of the following terms:
     one-electron contribution = -290492.57788232 Ry
     hartree contribution      =  145421.24100875 Ry
     xc contribution           =   -2170.33793941 Ry
     ewald contribution        =  140950.85092725 Ry
     DFT-D3 Dispersion         =      -2.97244512 Ry
     one-center paw contrib.   =   -5977.59562539 Ry
      -> PAW hartree energy AE =       2.28962209 Ry
      -> PAW hartree energy PS =      -2.28638029 Ry
      -> PAW xc energy AE      =     -36.95008190 Ry
      -> PAW xc energy PS      =       2.29122272 Ry
      -> total E_H with PAW    =  145421.24425056 Ry
      -> total E_XC with PAW   =   -2204.99679859 Ry

     total magnetization       =     0.00 Bohr mag/cell
     absolute magnetization    =     0.00 Bohr mag/cell

     convergence has been achieved in 370 iterations

     negative rho (up, down):  5.312E-03 5.312E-03

     Forces acting on atoms (cartesian axes, Ry/au):

     atom    1 type  1   force =    -0.00000121   -0.00000249   -0.07863506
     atom    2 type  1   force =    -0.00044572   -0.00089785   -0.00584554
     atom    3 type  1   force =    -0.00060908   -0.00030093   -0.01252735
     atom    4 type  1   force =    -0.00335515   -0.00148801   -0.00533476
     atom    5 type  1   force =     0.00000363   -0.00002096    0.00348277
     atom    6 type  1   force =     0.00007120    0.00005896    0.25183044
     atom    7 type  2   force =     0.07203339    0.02066195   -0.05414006
     atom    8 type  2   force =    -0.05390989    0.05205265   -0.05413962
     atom    9 type  2   force =    -0.01812313   -0.07271382   -0.05414110
     atom   10 type  2   force =    -0.00283999   -0.00013923   -0.00020793
     atom   11 type  2   force =    -0.00112166   -0.00120071   -0.00261172
     atom   12 type  2   force =     0.00359739    0.00171830    0.00065420
     atom   13 type  2   force =    -0.00078342    0.00001895    0.00322351
     atom   14 type  2   force =     0.00048433    0.00039758    0.00321447
     atom   15 type  2   force =     0.00041402    0.00067350    0.00322300
     atom   16 type  1   force =     0.00096615    0.00128569   -0.07734648
     atom   17 type  1   force =     0.00368124    0.00203261   -0.00527948
     atom   18 type  1   force =     0.00027155   -0.00001812   -0.01336289
     atom   19 type  1   force =     0.00018943   -0.00103892   -0.00677655
     atom   20 type  1   force =     0.00526172    0.00861885    0.01486876
     atom   21 type  1   force =     0.00014912    0.00014516    0.25167829
     atom   22 type  2   force =     0.07196638    0.02044513   -0.05437665
     atom   23 type  2   force =    -0.05413069    0.05184597   -0.05458930
     atom   24 type  2   force =    -0.01817372   -0.07271972   -0.05411120
     atom   25 type  2   force =    -0.00757096    0.00228958   -0.00398852
     atom   26 type  2   force =    -0.00389114   -0.00265170    0.00142618
     atom   27 type  2   force =     0.00104679   -0.00262624   -0.00095494
     atom   28 type  2   force =    -0.00082193   -0.00141278    0.00304051
     atom   29 type  2   force =     0.00030191   -0.00057391    0.00368302
     atom   30 type  2   force =    -0.00107758   -0.00038115    0.00317271
     atom   31 type  1   force =     0.00133866    0.00000876   -0.07740693
     atom   32 type  1   force =     0.00097803    0.00008053   -0.00584465
     atom   33 type  1   force =    -0.00012327    0.00024442   -0.01336955
     atom   34 type  1   force =     0.00078067    0.00068163   -0.00678468
     atom   35 type  1   force =     0.00589260    0.00080887    0.01447648
     atom   36 type  1   force =    -0.00008781    0.00003265    0.25183166
     atom   37 type  2   force =     0.07178638    0.02080102   -0.05465515
     atom   38 type  2   force =    -0.05394227    0.05208844   -0.05427602
     atom   39 type  2   force =    -0.01828399   -0.07279134   -0.05415551
     atom   40 type  2   force =    -0.00327670    0.00224106    0.00066526
     atom   41 type  2   force =     0.00154975   -0.00239104   -0.00020463
     atom   42 type  2   force =     0.00161131   -0.00038090   -0.00260482
     atom   43 type  2   force =    -0.00199148   -0.00049393    0.00165794
     atom   44 type  2   force =     0.00164035   -0.00001026    0.00303260
     atom   45 type  2   force =    -0.00058128    0.00021704    0.00322333
     atom   46 type  1   force =     0.00063403   -0.00148648   -0.07733636
     atom   47 type  1   force =    -0.00055559    0.00080685   -0.00584797
     atom   48 type  1   force =     0.00056495   -0.00037325   -0.01253058
     atom   49 type  1   force =     0.00297257   -0.00214963   -0.00533902
     atom   50 type  1   force =     0.00486170   -0.00889664    0.01489112
     atom   51 type  1   force =     0.00001647   -0.00009239    0.25183065
     atom   52 type  2   force =     0.07196446    0.02095682   -0.05459265
     atom   53 type  2   force =    -0.05389174    0.05209964   -0.05411248
     atom   54 type  2   force =    -0.01827702   -0.07254783   -0.05437973
     atom   55 type  2   force =    -0.00049084    0.00158507   -0.00260869
     atom   56 type  2   force =    -0.00031587   -0.00396641    0.00065529
     atom   57 type  2   force =     0.00128996    0.00253716   -0.00019735
     atom   58 type  2   force =    -0.00121513    0.00175890    0.00004789
     atom   59 type  2   force =     0.00037302   -0.00068661    0.00322707
     atom   60 type  2   force =    -0.00081478    0.00142428    0.00303346
     atom   61 type  1   force =    -0.00067223    0.00115459   -0.07740719
     atom   62 type  1   force =    -0.00100578    0.00384639   -0.00108388
     atom   63 type  1   force =     0.00004365    0.00067490   -0.01253568
     atom   64 type  1   force =     0.00039022    0.00364403   -0.00536137
     atom   65 type  1   force =    -0.00362527    0.00470207    0.01450821
     atom   66 type  1   force =     0.00004623    0.00024460    0.25111484
     atom   67 type  2   force =     0.07218115    0.02056229   -0.05415691
     atom   68 type  2   force =    -0.05390884    0.05176682   -0.05465582
     atom   69 type  2   force =    -0.01814058   -0.07275863   -0.05427480
     atom   70 type  2   force =    -0.00323460    0.00523929   -0.01198810
     atom   71 type  2   force =    -0.00547602   -0.00863615   -0.00744122
     atom   72 type  2   force =     0.00628071   -0.00520979   -0.00367095
     atom   73 type  2   force =     0.00009745   -0.00061257    0.00322319
     atom   74 type  2   force =    -0.00091638   -0.00193031    0.00006420
     atom   75 type  2   force =     0.00046721   -0.00100783    0.00135356
     atom   76 type  1   force =     0.00000314    0.00000656   -0.07422361
     atom   77 type  1   force =     0.00384720   -0.00103105   -0.00106143
     atom   78 type  1   force =     0.00081521    0.00055103   -0.01042215
     atom   79 type  1   force =     0.00411146    0.00090396   -0.00220551
     atom   80 type  1   force =     0.00000593    0.00003541    0.03146403
     atom   81 type  1   force =     0.00018949   -0.00016105    0.25111307
     atom   82 type  2   force =     0.07210500    0.02091853   -0.05514241
     atom   83 type  2   force =    -0.05416984    0.05198302   -0.05514409
     atom   84 type  2   force =    -0.01793628   -0.07290403   -0.05514124
     atom   85 type  2   force =    -0.00474089    0.00903990   -0.00744762
     atom   86 type  2   force =    -0.00764186   -0.00282394   -0.00365011
     atom   87 type  2   force =     0.00612692    0.00016466   -0.01194811
     atom   88 type  2   force =     0.00021710   -0.00035093   -0.00061890
     atom   89 type  2   force =    -0.00111011    0.00009432    0.00134756
     atom   90 type  2   force =    -0.00041400   -0.00002446   -0.00061936
     atom   91 type  1   force =    -0.00066759   -0.00116298   -0.07739269
     atom   92 type  1   force =    -0.00007372   -0.00421398   -0.00524776
     atom   93 type  1   force =     0.00006817   -0.00097713   -0.01040717
     atom   94 type  1   force =    -0.00127342   -0.00400762   -0.00217136
     atom   95 type  1   force =    -0.00227990   -0.00551260    0.01453328
     atom   96 type  1   force =     0.00005262   -0.00020315    0.25167511
     atom   97 type  2   force =     0.07208214    0.02067124   -0.05427786
     atom   98 type  2   force =    -0.05389849    0.05222968   -0.05415904
     atom   99 type  2   force =    -0.01787677   -0.07257011   -0.05465975
     atom  100 type  2   force =    -0.00034840    0.00471435    0.00140513
     atom  101 type  2   force =    -0.00281151    0.00042192   -0.00096274
     atom  102 type  2   force =     0.00574782    0.00540686   -0.00397725
     atom  103 type  2   force =     0.00064530    0.00091050    0.00134047
     atom  104 type  2   force =     0.00019734    0.00112883    0.00316450
     atom  105 type  2   force =     0.00056944    0.00197027    0.00164058
     atom  106 type  1   force =    -0.00000217   -0.00000529   -0.07935267
     atom  107 type  1   force =    -0.00360163    0.00215991   -0.00527708
     atom  108 type  1   force =    -0.00014635   -0.00022792   -0.01336425
     atom  109 type  1   force =    -0.00096177    0.00034388   -0.00677839
     atom  110 type  1   force =    -0.00000919   -0.00002784    0.00168247
     atom  111 type  1   force =    -0.00020039    0.00005442    0.25167841
     atom  112 type  2   force =     0.07196033    0.02046897   -0.05383697
     atom  113 type  2   force =    -0.05370623    0.05208533   -0.05383660
     atom  114 type  2   force =    -0.01825454   -0.07255183   -0.05383640
     atom  115 type  2   force =     0.00176624    0.00222514   -0.00096107
     atom  116 type  2   force =     0.00180490   -0.00768866   -0.00396261
     atom  117 type  2   force =     0.00424501   -0.00204054    0.00141634
     atom  118 type  2   force =    -0.00064711    0.00003656    0.00367233
     atom  119 type  2   force =     0.00142188   -0.00147698    0.00165838
     atom  120 type  2   force =     0.00034655    0.00055277    0.00367576
     atom  121 type  1   force =    -0.00160051    0.00019967   -0.07734226
     atom  122 type  1   force =    -0.00283073   -0.00278262   -0.00105438
     atom  123 type  1   force =    -0.00088264    0.00043429   -0.01041925
     atom  124 type  1   force =    -0.00284198    0.00312665   -0.00220214
     atom  125 type  1   force =    -0.01010743    0.00027388    0.01485128
     atom  126 type  1   force =    -0.00023506   -0.00008270    0.25111211
     atom  127 type  2   force =     0.07206577    0.02062019   -0.05411127
     atom  128 type  2   force =    -0.05368972    0.05210029   -0.05437934
     atom  129 type  2   force =    -0.01783467   -0.07280076   -0.05458950
     atom  130 type  2   force =     0.00138354    0.00801212   -0.00365396
     atom  131 type  2   force =    -0.00290370   -0.00540535   -0.01192903
     atom  132 type  2   force =     0.01020806   -0.00044370   -0.00744471
     atom  133 type  2   force =     0.00087340   -0.00074177    0.00317362
     atom  134 type  2   force =     0.00019063    0.00035818   -0.00062990
     atom  135 type  2   force =     0.00213093    0.00016418    0.00005620
     atom  136 type  3   force =    -0.00000260    0.00001429   -0.00255413
     atom  137 type  4   force =    -0.00019084    0.00119956    0.00119820
     atom  138 type  4   force =     0.00009002    0.00106701    0.00248566
     atom  139 type  3   force =     0.00112597   -0.00280819   -0.00274602
     atom  140 type  4   force =    -0.00069119    0.00023002   -0.00030443
     atom  141 type  4   force =    -0.00030558    0.00069828    0.00149655
     atom  142 type  3   force =    -0.00084081   -0.00053382   -0.00279092
     atom  143 type  4   force =     0.00034878   -0.00049806   -0.00084483
     atom  144 type  4   force =     0.00034073   -0.00056632    0.00163471
     atom  145 type  3   force =    -0.00170072    0.00237145   -0.00201506
     atom  146 type  4   force =     0.00095941   -0.00020687    0.00120119
     atom  147 type  4   force =     0.00109778   -0.00063566    0.00228577
     atom  148 type  3   force =    -0.00299117    0.00044298   -0.00275273
     atom  149 type  4   force =     0.00091013    0.00015030    0.00175659
     atom  150 type  4   force =     0.00085244    0.00038987    0.00266512
     atom  151 type  3   force =    -0.00115287   -0.00264099   -0.00200935
     atom  152 type  4   force =     0.00027761    0.00037684   -0.00071629
     atom  153 type  4   force =     0.00032262    0.00055924    0.00170529
     atom  154 type  3   force =     0.00001248   -0.00221371   -0.00267145
     atom  155 type  4   force =     0.00005816    0.00016968   -0.00248722
     atom  156 type  4   force =     0.00004400    0.00017736    0.00026588
     atom  157 type  3   force =    -0.00189927    0.00108829   -0.00269903
     atom  158 type  4   force =     0.00042293    0.00054850   -0.00034295
     atom  159 type  4   force =     0.00085258   -0.00043833    0.00120487
     atom  160 type  3   force =    -0.00003095    0.00101244   -0.00282254
     atom  161 type  4   force =    -0.00045789    0.00015092    0.00195633
     atom  162 type  4   force =    -0.00005496    0.00007164    0.00213776
     atom  163 type  3   force =    -0.00054584   -0.00051316   -0.00393070
     atom  164 type  4   force =     0.00048052    0.00037103    0.00185314
     atom  165 type  4   force =     0.00024213   -0.00023915    0.00223600
     atom  166 type  3   force =     0.00086486   -0.00050936   -0.00278079
     atom  167 type  4   force =     0.00011916   -0.00039497   -0.00047113
     atom  168 type  4   force =    -0.00062738   -0.00038773    0.00127714
     atom  169 type  3   force =     0.00188589    0.00110120   -0.00269854
     atom  170 type  4   force =    -0.00059415    0.00008879   -0.00084671
     atom  171 type  4   force =    -0.00064355   -0.00045708    0.00156603
     atom  172 type  3   force =     0.00286585    0.00037076   -0.00201820
     atom  173 type  4   force =    -0.00043390    0.00076923    0.00180013
     atom  174 type  4   force =    -0.00090836    0.00044236    0.00255461
     atom  175 type  3   force =     0.00069341   -0.00029842   -0.00393546
     atom  176 type  4   force =     0.00005060   -0.00020166    0.00177706
     atom  177 type  4   force =    -0.00020791   -0.00009695    0.00227009
     atom  178 type  3   force =    -0.00014895    0.00069908   -0.00397827
     atom  179 type  4   force =    -0.00052116   -0.00069293    0.00166649
     atom  180 type  4   force =     0.00006987   -0.00119355    0.00262582
     atom  181 type  3   force =     0.00187282    0.00240370   -0.00275972
     atom  182 type  4   force =    -0.00069589   -0.00061453    0.00124145
     atom  183 type  4   force =    -0.00121475   -0.00081630    0.00235319
     The non-local contrib.  to forces
     atom    1 type  1   force =     0.00000169    0.00000068   -0.06863266
     atom    2 type  1   force =    -0.00003994    0.00047315   -0.04614429
     atom    3 type  1   force =     0.00028048    0.00009087    0.07675602
     atom    4 type  1   force =     0.00163166    0.00132612   -0.07805425
     atom    5 type  1   force =    -0.00000506    0.00000769    0.09420901
     atom    6 type  1   force =     0.00011169    0.00016692   -0.19596924
     atom    7 type  2   force =     0.58423444    0.08939514    0.01654097
     atom    8 type  2   force =    -0.36953376    0.46127798    0.01654676
     atom    9 type  2   force =    -0.21470019   -0.55065955    0.01653604
     atom   10 type  2   force =     0.47456339   -0.42428795   -0.67519552
     atom   11 type  2   force =     0.11906415    0.62036004   -0.67806526
     atom   12 type  2   force =    -0.59217242   -0.19764621   -0.67268863
     atom   13 type  2   force =     0.10160701    0.13193268    0.05295113
     atom   14 type  2   force =    -0.16421236    0.02769625    0.05268628
     atom   15 type  2   force =     0.06348103   -0.15394057    0.05294580
     atom   16 type  1   force =    -0.00058322   -0.00086637   -0.06886163
     atom   17 type  1   force =    -0.00207341   -0.00065135   -0.04670948
     atom   18 type  1   force =    -0.00015400   -0.00003485    0.07699957
     atom   19 type  1   force =     0.00019945    0.00051222   -0.07717704
     atom   20 type  1   force =    -0.00067289   -0.00152435    0.08961901
     atom   21 type  1   force =    -0.00027623    0.00000892   -0.19580742
     atom   22 type  2   force =     0.58335485    0.08685767    0.01529021
     atom   23 type  2   force =    -0.37093054    0.45967600    0.01396714
     atom   24 type  2   force =    -0.21534678   -0.55126573    0.01681027
     atom   25 type  2   force =     0.45065036   -0.41592732   -0.69739276
     atom   26 type  2   force =     0.10885853    0.61535355   -0.66708165
     atom   27 type  2   force =    -0.60519191   -0.21244083   -0.67539728
     atom   28 type  2   force =     0.10146401    0.12420670    0.05122746
     atom   29 type  2   force =    -0.16608551    0.02266778    0.05506084
     atom   30 type  2   force =     0.05593236   -0.15909529    0.05268012
     atom   31 type  1   force =    -0.00053210    0.00004030   -0.06887317
     atom   32 type  1   force =    -0.00038282   -0.00027763   -0.04614475
     atom   33 type  1   force =     0.00010970   -0.00011494    0.07700241
     atom   34 type  1   force =    -0.00052953   -0.00008135   -0.07717381
     atom   35 type  1   force =    -0.00195873   -0.00041168    0.09016413
     atom   36 type  1   force =    -0.00019985    0.00001150   -0.19597012
     atom   37 type  2   force =     0.57983978    0.08853664    0.01286561
     atom   38 type  2   force =    -0.37175501    0.46207827    0.01635746
     atom   39 type  2   force =    -0.21694788   -0.55169875    0.01686526
     atom   40 type  2   force =     0.46730226   -0.41408166   -0.67262764
     atom   41 type  2   force =     0.13024644    0.62314229   -0.67526351
     atom   42 type  2   force =    -0.59672525   -0.20710788   -0.67802459
     atom   43 type  2   force =     0.09526921    0.12775117    0.04453697
     atom   44 type  2   force =    -0.15826654    0.02574643    0.05118496
     atom   45 type  2   force =     0.05815395   -0.15608048    0.05273310
     atom   46 type  1   force =    -0.00045952    0.00094060   -0.06886479
     atom   47 type  1   force =     0.00042853   -0.00019349   -0.04614401
     atom   48 type  1   force =    -0.00021697    0.00019707    0.07675727
     atom   49 type  1   force =    -0.00196873    0.00074778   -0.07805374
     atom   50 type  1   force =    -0.00099247    0.00135534    0.08965189
     atom   51 type  1   force =     0.00008871   -0.00017989   -0.19596957
     atom   52 type  2   force =     0.58353936    0.09140051    0.01394267
     atom   53 type  2   force =    -0.36974542    0.46214852    0.01681101
     atom   54 type  2   force =    -0.21646279   -0.54862056    0.01527297
     atom   55 type  2   force =     0.47763962   -0.41320617   -0.67800102
     atom   56 type  2   force =     0.12487571    0.61169943   -0.67264855
     atom   57 type  2   force =    -0.60479646   -0.19877492   -0.67522932
     atom   58 type  2   force =     0.09970466    0.13849963    0.03796313
     atom   59 type  2   force =    -0.16507598    0.02203627    0.05296577
     atom   60 type  2   force =     0.05681759   -0.14994137    0.05118788
     atom   61 type  1   force =     0.00022902   -0.00048048   -0.06887277
     atom   62 type  1   force =    -0.00010335   -0.00167803   -0.04813614
     atom   63 type  1   force =    -0.00006155   -0.00028492    0.07675916
     atom   64 type  1   force =     0.00033259   -0.00207443   -0.07805154
     atom   65 type  1   force =     0.00133339   -0.00149061    0.09014170
     atom   66 type  1   force =     0.00005771   -0.00029509   -0.19507060
     atom   67 type  2   force =     0.58625680    0.08796914    0.01686134
     atom   68 type  2   force =    -0.36659979    0.45788351    0.01286615
     atom   69 type  2   force =    -0.21429961   -0.55298690    0.01636390
     atom   70 type  2   force =     0.47222605   -0.40414905   -0.72917731
     atom   71 type  2   force =     0.10157627    0.59075848   -0.71428592
     atom   72 type  2   force =    -0.58425446   -0.22840277   -0.69598955
     atom   73 type  2   force =     0.10606591    0.12839803    0.05273102
     atom   74 type  2   force =    -0.16981500    0.01710382    0.03804015
     atom   75 type  2   force =     0.06270416   -0.16214752    0.04437455
     atom   76 type  1   force =    -0.00000213   -0.00000292   -0.06962939
     atom   77 type  1   force =    -0.00140856    0.00091875   -0.04814156
     atom   78 type  1   force =    -0.00034907   -0.00024719    0.07597669
     atom   79 type  1   force =    -0.00188365   -0.00079897   -0.07891157
     atom   80 type  1   force =     0.00000075   -0.00000953    0.07809949
     atom   81 type  1   force =    -0.00028358    0.00009678   -0.19506792
     atom   82 type  2   force =     0.58399659    0.08859119    0.01178673
     atom   83 type  2   force =    -0.36872677    0.46143852    0.01177594
     atom   84 type  2   force =    -0.21526821   -0.55006469    0.01179342
     atom   85 type  2   force =     0.46086052   -0.38347061   -0.71443842
     atom   86 type  2   force =     0.09434226    0.62025362   -0.69599358
     atom   87 type  2   force =    -0.58624573   -0.20696172   -0.72904597
     atom   88 type  2   force =     0.10626337    0.12695814    0.03416088
     atom   89 type  2   force =    -0.17179619    0.02675009    0.04434978
     atom   90 type  2   force =     0.05681166   -0.15556656    0.03415864
     atom   91 type  1   force =     0.00030435    0.00043996   -0.06887642
     atom   92 type  1   force =     0.00046866    0.00212319   -0.04671685
     atom   93 type  1   force =    -0.00003912    0.00042553    0.07597095
     atom   94 type  1   force =     0.00024987    0.00203097   -0.07891856
     atom   95 type  1   force =     0.00062971    0.00190547    0.09016542
     atom   96 type  1   force =     0.00014671    0.00023584   -0.19580344
     atom   97 type  2   force =     0.58605501    0.09090610    0.01634658
     atom   98 type  2   force =    -0.36930131    0.46373479    0.01685043
     atom   99 type  2   force =    -0.21323471   -0.54642164    0.01284231
     atom  100 type  2   force =     0.47853406   -0.40186112   -0.66724536
     atom  101 type  2   force =     0.11853874    0.63046048   -0.67553076
     atom  102 type  2   force =    -0.58564284   -0.18231520   -0.69743272
     atom  103 type  2   force =     0.10909745    0.13537406    0.04431301
     atom  104 type  2   force =    -0.16579775    0.03114191    0.05264064
     atom  105 type  2   force =     0.06299816   -0.14637753    0.04445111
     atom  106 type  1   force =     0.00000030    0.00000277   -0.06833999
     atom  107 type  1   force =     0.00160052   -0.00146445   -0.04670830
     atom  108 type  1   force =     0.00004442    0.00015417    0.07700021
     atom  109 type  1   force =     0.00033003   -0.00042059   -0.07717721
     atom  110 type  1   force =     0.00000803    0.00000930    0.09312497
     atom  111 type  1   force =     0.00013207   -0.00024540   -0.19580732
     atom  112 type  2   force =     0.58420464    0.08944555    0.01775324
     atom  113 type  2   force =    -0.36955122    0.46121794    0.01775625
     atom  114 type  2   force =    -0.21464297   -0.55064207    0.01775040
     atom  115 type  2   force =     0.48665044   -0.41786040   -0.67543801
     atom  116 type  2   force =     0.13491014    0.59829031   -0.69727766
     atom  117 type  2   force =    -0.58732725   -0.21339887   -0.66714691
     atom  118 type  2   force =     0.10267525    0.13254638    0.05501392
     atom  119 type  2   force =    -0.15828029    0.01863635    0.04453999
     atom  120 type  2   force =     0.06341423   -0.15514087    0.05502711
     atom  121 type  1   force =     0.00104304   -0.00007440   -0.06886302
     atom  122 type  1   force =     0.00150436    0.00074534   -0.04814365
     atom  123 type  1   force =     0.00038824   -0.00017912    0.07597578
     atom  124 type  1   force =     0.00163948   -0.00123831   -0.07891325
     atom  125 type  1   force =     0.00166477    0.00016958    0.08964495
     atom  126 type  1   force =     0.00022697    0.00019477   -0.19506680
     atom  127 type  2   force =     0.58510188    0.08912863    0.01681483
     atom  128 type  2   force =    -0.36688371    0.46175567    0.01527261
     atom  129 type  2   force =    -0.21261957   -0.55107696    0.01396083
     atom  130 type  2   force =     0.49001492   -0.39192557   -0.69600268
     atom  131 type  2   force =     0.11396512    0.61112275   -0.72907377
     atom  132 type  2   force =    -0.56246114   -0.20752055   -0.71436628
     atom  133 type  2   force =     0.10983553    0.12798859    0.05268447
     atom  134 type  2   force =    -0.16310391    0.02852329    0.03410869
     atom  135 type  2   force =     0.07010037   -0.15565091    0.03800580
     atom  136 type  3   force =     0.00005383    0.00002275    0.00871820
     atom  137 type  4   force =     0.00081234   -0.00015069   -0.28290520
     atom  138 type  4   force =    -0.00360027   -0.01152792    0.28707947
     atom  139 type  3   force =    -0.00098552   -0.00230782    0.00690554
     atom  140 type  4   force =    -0.00197237   -0.00353854   -0.28044968
     atom  141 type  4   force =    -0.00095709   -0.01270323    0.24645865
     atom  142 type  3   force =    -0.00349553   -0.00032756    0.00802645
     atom  143 type  4   force =    -0.00444916    0.00070137   -0.28495305
     atom  144 type  4   force =    -0.00460214    0.00294666    0.24210767
     atom  145 type  3   force =    -0.00178370   -0.00085338    0.00434530
     atom  146 type  4   force =    -0.00077723   -0.00015290   -0.28303780
     atom  147 type  4   force =    -0.00791093    0.00886771    0.28696868
     atom  148 type  3   force =    -0.00168274    0.00206972    0.00671171
     atom  149 type  4   force =    -0.00163619   -0.00006903   -0.28766791
     atom  150 type  4   force =    -0.00110964   -0.00659117    0.28729905
     atom  151 type  3   force =     0.00146751   -0.00118817    0.00440953
     atom  152 type  4   force =     0.00168150   -0.00444169   -0.28481194
     atom  153 type  4   force =    -0.00041893   -0.00559219    0.24211391
     atom  154 type  3   force =     0.00071433   -0.00279472    0.00782172
     atom  155 type  4   force =     0.00007225    0.00029595   -0.27963277
     atom  156 type  4   force =     0.00003107    0.00010858    0.20217048
     atom  157 type  3   force =    -0.00272801    0.00064595    0.00768625
     atom  158 type  4   force =    -0.00222067    0.00368210   -0.28055122
     atom  159 type  4   force =    -0.01029055    0.00660314    0.24622246
     atom  160 type  3   force =     0.00137364    0.00314490    0.00781405
     atom  161 type  4   force =    -0.00066336    0.00101354   -0.28966991
     atom  162 type  4   force =    -0.00088678    0.00229817    0.28843566
     atom  163 type  3   force =    -0.00081023    0.00010685    0.01336699
     atom  164 type  4   force =     0.00138619    0.00012165   -0.28970312
     atom  165 type  4   force =     0.00259000   -0.00083382    0.28849673
     atom  166 type  3   force =     0.00205616   -0.00280779    0.00813984
     atom  167 type  4   force =     0.00401334    0.00053914   -0.28070215
     atom  168 type  4   force =     0.01113573    0.00559984    0.24625154
     atom  169 type  3   force =     0.00205703    0.00193776    0.00766359
     atom  170 type  4   force =     0.00280170    0.00384314   -0.28486385
     atom  171 type  4   force =     0.00501020    0.00176745    0.24200765
     atom  172 type  3   force =     0.00034860    0.00184025    0.00423060
     atom  173 type  4   force =     0.00109823   -0.00124651   -0.28774496
     atom  174 type  4   force =     0.00608214    0.00229999    0.28727490
     atom  175 type  3   force =     0.00040269   -0.00065893    0.01339085
     atom  176 type  4   force =    -0.00061475   -0.00071614   -0.28968555
     atom  177 type  4   force =    -0.00173318   -0.00204823    0.28844157
     atom  178 type  3   force =     0.00048302    0.00077295    0.01305506
     atom  179 type  4   force =     0.00045391    0.00167070   -0.28778642
     atom  180 type  4   force =    -0.00492610    0.00371207    0.28738275
     atom  181 type  3   force =     0.00252555    0.00030568    0.00667009
     atom  182 type  4   force =     0.00009593    0.00106734   -0.28294823
     atom  183 type  4   force =     0.01148858    0.00216406    0.28708229
     The ionic contribution  to forces
     atom    1 type  1   force =    -0.00000977   -0.00027282  -33.94562532
     atom    2 type  1   force =     0.00840234   -0.00577949  -12.41095105
     atom    3 type  1   force =     0.00187087    0.00110575  -40.17274171
     atom    4 type  1   force =     0.00221422    0.00133607   -8.44448961
     atom    5 type  1   force =     0.00005590   -0.00130172    3.56757486
     atom    6 type  1   force =     0.00071512   -0.00056835  -57.85503353
     atom    7 type  2   force =     0.21493288    0.12012027  -99.26191777
     atom    8 type  2   force =    -0.21173417    0.12551178  -99.26214849
     atom    9 type  2   force =    -0.00323526   -0.24636828  -99.26179961
     atom   10 type  2   force =    -0.44292738    0.11921798    5.61679565
     atom   11 type  2   force =     0.08523687   -0.38026069    5.52478413
     atom   12 type  2   force =     0.35720043    0.25125883    5.65843606
     atom   13 type  2   force =    -1.26523808   -0.37909824  -47.89766944
     atom   14 type  2   force =     0.96962621   -0.90380968  -47.90963951
     atom   15 type  2   force =     0.30422769    1.28438229  -47.89787245
     atom   16 type  1   force =     0.00078088   -0.00253712  -33.95166611
     atom   17 type  1   force =     0.00251454    0.00167670  -12.42980965
     atom   18 type  1   force =     0.00116697   -0.00096701  -40.17563222
     atom   19 type  1   force =     0.00081472   -0.00086829   -8.44647492
     atom   20 type  1   force =    -0.02609525   -0.05746743    3.48744204
     atom   21 type  1   force =    -0.00000756    0.00004808  -57.85661710
     atom   22 type  2   force =     0.21718642    0.11723138  -99.26658787
     atom   23 type  2   force =    -0.21244505    0.12646930  -99.26847152
     atom   24 type  2   force =    -0.00241827   -0.25008341  -99.26597725
     atom   25 type  2   force =    -0.42576089    0.19937266    5.60051014
     atom   26 type  2   force =     0.02242824   -0.36805331    5.63153325
     atom   27 type  2   force =     0.34886676    0.14912791    5.54310394
     atom   28 type  2   force =    -1.25741236   -0.39335691  -47.90502252
     atom   29 type  2   force =     0.96118105   -0.89687173  -47.91671595
     atom   30 type  2   force =     0.30077347    1.27853128  -47.91431197
     atom   31 type  1   force =    -0.00157941    0.00229218  -33.95102506
     atom   32 type  1   force =    -0.00024357    0.01027806  -12.41032444
     atom   33 type  1   force =    -0.00001415    0.00164575  -40.17560812
     atom   34 type  1   force =    -0.00058822    0.00168179   -8.44634181
     atom   35 type  1   force =    -0.05408981    0.00890990    3.49235720
     atom   36 type  1   force =    -0.00000256    0.00091121  -57.85494675
     atom   37 type  2   force =     0.21502730    0.12187854  -99.26775753
     atom   38 type  2   force =    -0.21419637    0.13012297  -99.26425558
     atom   39 type  2   force =    -0.00488676   -0.24590136  -99.26749230
     atom   40 type  2   force =    -0.39896118    0.18444428    5.65819294
     atom   41 type  2   force =     0.11430024   -0.44496986    5.62031420
     atom   42 type  2   force =     0.28363647    0.26578296    5.52723219
     atom   43 type  2   force =    -1.26314255   -0.38125273  -47.91681626
     atom   44 type  2   force =     0.96825203   -0.89210863  -47.90319316
     atom   45 type  2   force =     0.29664867    1.29218922  -47.90959583
     atom   46 type  1   force =    -0.00244553    0.00024792  -33.95093816
     atom   47 type  1   force =    -0.00826120   -0.00598637  -12.41089662
     atom   48 type  1   force =    -0.00191631    0.00108611  -40.17278136
     atom   49 type  1   force =    -0.00240310    0.00134804   -8.44468543
     atom   50 type  1   force =    -0.03588462    0.04919964    3.49088449
     atom   51 type  1   force =    -0.00071683   -0.00054729  -57.85503292
     atom   52 type  2   force =     0.21566038    0.12051555  -99.26770086
     atom   53 type  2   force =    -0.21505565    0.12653832  -99.26563608
     atom   54 type  2   force =    -0.00692042   -0.24677555  -99.26575180
     atom   55 type  2   force =    -0.36918515    0.11091874    5.52676812
     atom   56 type  2   force =     0.04186200   -0.43993685    5.65411814
     atom   57 type  2   force =     0.32809740    0.31959042    5.61966593
     atom   58 type  2   force =    -1.26453426   -0.38229470  -47.91691096
     atom   59 type  2   force =     0.96093984   -0.90742737  -47.89874676
     atom   60 type  2   force =     0.28905896    1.28430800  -47.90331441
     atom   61 type  1   force =    -0.00083620   -0.00242655  -33.95145398
     atom   62 type  1   force =     0.00118931   -0.00424631  -12.42196834
     atom   63 type  1   force =     0.00003645   -0.00247412  -40.17326243
     atom   64 type  1   force =     0.00013669   -0.00380017   -8.44649717
     atom   65 type  1   force =     0.02100332   -0.05103618    3.49020087
     atom   66 type  1   force =     0.00002290   -0.00071760  -57.85656508
     atom   67 type  2   force =     0.21572398    0.11881055  -99.26767325
     atom   68 type  2   force =    -0.21266725    0.12562340  -99.26820360
     atom   69 type  2   force =    -0.00534623   -0.25074048  -99.26477556
     atom   70 type  2   force =    -0.42576674    0.23741672    5.47435963
     atom   71 type  2   force =     0.01462718   -0.44300977    5.61552237
     atom   72 type  2   force =     0.41194162    0.17878867    5.62311731
     atom   73 type  2   force =    -1.26634607   -0.38955650  -47.91038713
     atom   74 type  2   force =     0.96339776   -0.90356953  -47.91959551
     atom   75 type  2   force =     0.29660601    1.27384389  -47.91040644
     atom   76 type  1   force =     0.00004002    0.00043263  -33.95380246
     atom   77 type  1   force =    -0.00446425    0.00211412  -12.42005055
     atom   78 type  1   force =    -0.00051049    0.00007110  -40.17686711
     atom   79 type  1   force =    -0.00018810    0.00270508   -8.44787635
     atom   80 type  1   force =     0.00025682    0.00228781    3.37630382
     atom   81 type  1   force =    -0.00065918    0.00046105  -57.85632861
     atom   82 type  2   force =     0.21768156    0.12100689  -99.26895658
     atom   83 type  2   force =    -0.21321096    0.12849848  -99.26875528
     atom   84 type  2   force =    -0.00437741   -0.24837265  -99.26927886
     atom   85 type  2   force =    -0.39359045    0.21377724    5.62168963
     atom   86 type  2   force =    -0.04916442   -0.44638949    5.63079367
     atom   87 type  2   force =     0.41722129    0.25486581    5.47857278
     atom   88 type  2   force =    -1.25916582   -0.38603054  -47.91826298
     atom   89 type  2   force =     0.95536754   -0.89317210  -47.90824383
     atom   90 type  2   force =     0.29435394    1.28557304  -47.91753865
     atom   91 type  1   force =     0.00241858    0.00010289  -33.95074656
     atom   92 type  1   force =    -0.00017629   -0.00396682  -12.42865596
     atom   93 type  1   force =     0.00008526    0.00055358  -40.17633272
     atom   94 type  1   force =     0.00152385   -0.00075569   -8.44574584
     atom   95 type  1   force =     0.03316874    0.04141502    3.49338073
     atom   96 type  1   force =     0.00000812   -0.00014371  -57.85645690
     atom   97 type  2   force =     0.21952495    0.12025290  -99.26420272
     atom   98 type  2   force =    -0.21086522    0.12690709  -99.26720477
     atom   99 type  2   force =    -0.00231959   -0.24698498  -99.26733857
     atom  100 type  2   force =    -0.33307518    0.16222473    5.63339794
     atom  101 type  2   force =    -0.04439929   -0.38059791    5.54502136
     atom  102 type  2   force =     0.38409699    0.26629848    5.60707002
     atom  103 type  2   force =    -1.25191162   -0.38049664  -47.90772375
     atom  104 type  2   force =     0.95727682   -0.90131524  -47.91293320
     atom  105 type  2   force =     0.30041251    1.28415047  -47.91505144
     atom  106 type  1   force =    -0.00001652   -0.00013020  -33.95276156
     atom  107 type  1   force =    -0.00244098    0.00196098  -12.42975011
     atom  108 type  1   force =    -0.00118108   -0.00093587  -40.17561565
     atom  109 type  1   force =    -0.00027414   -0.00177347   -8.44641888
     atom  110 type  1   force =    -0.00010090   -0.00058390    3.54543137
     atom  111 type  1   force =    -0.00000348    0.00004428  -57.85660067
     atom  112 type  2   force =     0.21720892    0.11984307  -99.26839974
     atom  113 type  2   force =    -0.21254878    0.12825739  -99.26838411
     atom  114 type  2   force =    -0.00471304   -0.24845705  -99.26822304
     atom  115 type  2   force =    -0.30455161    0.22847868    5.54329680
     atom  116 type  2   force =     0.04099077   -0.46382846    5.60235068
     atom  117 type  2   force =     0.31026874    0.20423354    5.63015807
     atom  118 type  2   force =    -1.25780631   -0.38487062  -47.91625330
     atom  119 type  2   force =     0.96274046   -0.90212800  -47.91722391
     atom  120 type  2   force =     0.29649682    1.28070666  -47.91669966
     atom  121 type  1   force =     0.00165061    0.00228268  -33.95113247
     atom  122 type  1   force =     0.00346566    0.00395984  -12.41979121
     atom  123 type  1   force =     0.00046856   -0.00002996  -40.17681276
     atom  124 type  1   force =    -0.00122843    0.00024510   -8.44764823
     atom  125 type  1   force =     0.06169585    0.00793856    3.48995022
     atom  126 type  1   force =     0.00066285    0.00047472  -57.85630569
     atom  127 type  2   force =     0.21743747    0.12318666  -99.26562535
     atom  128 type  2   force =    -0.21025729    0.12965865  -99.26580298
     atom  129 type  2   force =    -0.00321615   -0.24675096  -99.26817324
     atom  130 type  2   force =    -0.36243963    0.26874265    5.63087234
     atom  131 type  2   force =     0.00907574   -0.48735464    5.48324565
     atom  132 type  2   force =     0.37997868    0.23993517    5.61947967
     atom  133 type  2   force =    -1.25814736   -0.37785381  -47.91363711
     atom  134 type  2   force =     0.96512704   -0.89615146  -47.91643192
     atom  135 type  2   force =     0.30124683    1.28768723  -47.91790386
     atom  136 type  3   force =    -0.00035695   -0.00675059  168.88351397
     atom  137 type  4   force =    -0.04123302    0.21074391  112.17282945
     atom  138 type  4   force =     0.02987353    0.04464542   43.50280917
     atom  139 type  3   force =     0.04112403    0.36035072  168.30187578
     atom  140 type  4   force =     0.09691871    0.30264619  111.23933085
     atom  141 type  4   force =     0.00339156    0.09330797   43.15404645
     atom  142 type  3   force =     0.47484387    0.20154190  167.41031125
     atom  143 type  4   force =     0.35763799   -0.07733039  111.44427802
     atom  144 type  4   force =     0.06094300   -0.00221233   43.42749909
     atom  145 type  3   force =     0.33462241   -0.08542958  169.36350280
     atom  146 type  4   force =     0.20065818   -0.06769149  112.17489967
     atom  147 type  4   force =     0.03488424   -0.05554855   43.52049550
     atom  148 type  3   force =     0.30345802   -0.22784672  168.34488202
     atom  149 type  4   force =     0.15547715    0.03504961  112.13204640
     atom  150 type  4   force =     0.00871603    0.01366796   43.53943105
     atom  151 type  3   force =    -0.08099134    0.32865928  169.34626702
     atom  152 type  4   force =    -0.11059685    0.34486465  111.43564019
     atom  153 type  4   force =    -0.02027312    0.05801578   43.41482625
     atom  154 type  3   force =    -0.00914647    0.47651567  165.51753999
     atom  155 type  4   force =     0.00088193    0.00312277  110.36047151
     atom  156 type  4   force =     0.00176134    0.01269411   43.12273517
     atom  157 type  3   force =     0.41531149   -0.20897140  165.55587859
     atom  158 type  4   force =     0.21331854   -0.23401871  111.24316484
     atom  159 type  4   force =     0.07991903   -0.05682491   43.18838786
     atom  160 type  3   force =    -0.06868511   -0.51720172  167.46158089
     atom  161 type  4   force =    -0.01190015   -0.08701032  111.86788761
     atom  162 type  4   force =    -0.01404611    0.01837306   43.35707112
     atom  163 type  3   force =     0.05065850   -0.04321150  168.36319489
     atom  164 type  4   force =    -0.06992404    0.05347107  111.87337298
     atom  165 type  4   force =     0.03460966   -0.00213881   43.34470296
     atom  166 type  3   force =    -0.40697052    0.31778863  167.39913264
     atom  167 type  4   force =    -0.31189712   -0.06333010  111.24871279
     atom  168 type  4   force =    -0.08447071   -0.02922289   43.17435086
     atom  169 type  3   force =    -0.40204237   -0.22658032  165.55515584
     atom  170 type  4   force =    -0.24634069   -0.26797901  111.44296795
     atom  171 type  4   force =    -0.04003545   -0.05659082   43.44238599
     atom  172 type  3   force =    -0.25310022   -0.24847178  169.38009874
     atom  173 type  4   force =    -0.10516412    0.11681685  112.12978013
     atom  174 type  4   force =    -0.02557829   -0.01487727   43.54253934
     atom  175 type  3   force =    -0.00052438    0.04321738  168.36005013
     atom  176 type  4   force =     0.08198243    0.03674888  111.87827954
     atom  177 type  4   force =    -0.02093196   -0.02252810   43.34224435
     atom  178 type  3   force =    -0.05216526   -0.02531609  168.39503947
     atom  179 type  4   force =    -0.05009067   -0.14673144  112.14224922
     atom  180 type  4   force =     0.01564475   -0.01447304   43.54468178
     atom  181 type  3   force =    -0.34588340   -0.13646751  168.35002342
     atom  182 type  4   force =    -0.15901535   -0.13786123  112.17431181
     atom  183 type  4   force =    -0.06531073   -0.00920599   43.52125978
     The local contribution  to forces
     atom    1 type  1   force =     0.00000728    0.00026976   33.92519018
     atom    2 type  1   force =    -0.00881866    0.00447348   12.44377862
     atom    3 type  1   force =    -0.00272446   -0.00148615   40.08961219
     atom    4 type  1   force =    -0.00695987   -0.00397089    8.50795938
     atom    5 type  1   force =    -0.00004787    0.00127326   -3.64530193
     atom    6 type  1   force =    -0.00074381    0.00047741   58.27072741
     atom    7 type  2   force =    -0.72100701   -0.18772474   99.18864545
     atom    8 type  2   force =     0.52331776   -0.52999544   99.18887095
     atom    9 type  2   force =     0.19772642    0.71844458   99.18853100
     atom   10 type  2   force =    -0.03024699    0.30111178   -4.94729250
     atom   11 type  2   force =    -0.20434308   -0.23582882   -4.85483653
     atom   12 type  2   force =     0.23331959   -0.05359634   -4.99057945
     atom   13 type  2   force =     1.16385417    0.24842542   47.84828942
     atom   14 type  2   force =    -0.80649833    0.87682827   47.86051030
     atom   15 type  2   force =    -0.36672301   -1.13125975   47.84849692
     atom   16 type  1   force =     0.00070019    0.00458556   33.93271446
     atom   17 type  1   force =     0.00296162    0.00090832   12.46372870
     atom   18 type  1   force =    -0.00076183    0.00097756   40.09145413
     atom   19 type  1   force =    -0.00076531   -0.00063994    8.50766371
     atom   20 type  1   force =     0.03198631    0.06744758   -3.54989310
     atom   21 type  1   force =     0.00040490    0.00009097   58.27201452
     atom   22 type  2   force =    -0.72245442   -0.18254399   99.19431760
     atom   23 type  2   force =     0.52518878   -0.52957360   99.19729649
     atom   24 type  2   force =     0.19749657    0.72275020   99.19247215
     atom   25 type  2   force =    -0.02852081    0.21508352   -4.91289400
     atom   26 type  2   force =    -0.13419840   -0.24451895   -4.96844448
     atom   27 type  2   force =     0.25194973    0.05886808   -4.87415541
     atom   28 type  2   force =     1.15613283    0.26888574   47.85716276
     atom   29 type  2   force =    -0.79638439    0.87389054   47.86570760
     atom   30 type  2   force =    -0.35730334   -1.12137145   47.86514873
     atom   31 type  1   force =     0.00338511   -0.00231766   33.93202246
     atom   32 type  1   force =     0.00155368   -0.00996224   12.44315410
     atom   33 type  1   force =    -0.00020337   -0.00130106   40.09142117
     atom   34 type  1   force =     0.00183265   -0.00088828    8.50751981
     atom   35 type  1   force =     0.06172386   -0.00771364   -3.55567560
     atom   36 type  1   force =     0.00009391   -0.00088819   58.27064244
     atom   37 type  2   force =    -0.71700617   -0.18849561   99.19760043
     atom   38 type  2   force =     0.52794190   -0.53536082   99.19103304
     atom   39 type  2   force =     0.20143604    0.71892649   99.19388758
     atom   40 type  2   force =    -0.06751846    0.22818227   -4.99038513
     atom   41 type  2   force =    -0.24180353   -0.17499161   -4.95073978
     atom   42 type  2   force =     0.30942236   -0.06085668   -4.85731738
     atom   43 type  2   force =     1.16681391    0.25420058   47.87418081
     atom   44 type  2   force =    -0.80984267    0.86664917   47.85536782
     atom   45 type  2   force =    -0.35487401   -1.13740892   47.86043007
     atom   46 type  1   force =     0.00348355   -0.00256382   33.93199933
     atom   47 type  1   force =     0.00733922    0.00696334   12.44372138
     atom   48 type  1   force =     0.00267111   -0.00163032   40.08964739
     atom   49 type  1   force =     0.00706803   -0.00412637    8.50815039
     atom   50 type  1   force =     0.04161869   -0.05933239   -3.55334094
     atom   51 type  1   force =     0.00065375    0.00061596   58.27072762
     atom   52 type  2   force =    -0.72111521   -0.18980928   99.19654679
     atom   53 type  2   force =     0.52686569   -0.53183396   99.19212917
     atom   54 type  2   force =     0.20299922    0.71699977   99.19349569
     atom   55 type  2   force =    -0.10474751    0.30020198   -4.85688115
     atom   56 type  2   force =    -0.16590286   -0.17033209   -4.98630106
     atom   57 type  2   force =     0.27256702   -0.12003127   -4.95011864
     atom   58 type  2   force =     1.16459931    0.24687166   47.87915764
     atom   59 type  2   force =    -0.79706796    0.88495554   47.84935527
     atom   60 type  2   force =    -0.34619979   -1.13438775   47.85548618
     atom   61 type  1   force =    -0.00003771    0.00400231   33.93244977
     atom   62 type  1   force =    -0.00209782    0.00954959   12.46127854
     atom   63 type  1   force =     0.00006076    0.00339748   40.09012151
     atom   64 type  1   force =    -0.00004431    0.00921929    8.50993668
     atom   65 type  1   force =    -0.02583123    0.05705259   -3.55346910
     atom   66 type  1   force =    -0.00002685    0.00122846   58.27075226
     atom   67 type  2   force =    -0.72364880   -0.18510778   99.19407127
     atom   68 type  2   force =     0.52135360   -0.52703949   99.19804513
     atom   69 type  2   force =     0.19942493    0.72507102   99.19154782
     atom   70 type  2   force =    -0.04551902    0.16834570   -4.76331032
     atom   71 type  2   force =    -0.12078189   -0.15120621   -4.91466294
     atom   72 type  2   force =     0.17338427    0.04236571   -4.93656060
     atom   73 type  2   force =     1.16143657    0.26174580   47.86122176
     atom   74 type  2   force =    -0.79613250    0.88473001   47.88178287
     atom   75 type  2   force =    -0.35828200   -1.11429300   47.86762510
     atom   76 type  1   force =    -0.00003497   -0.00042334   33.93864026
     atom   77 type  1   force =     0.00953054   -0.00394846   12.45938953
     atom   78 type  1   force =     0.00163093    0.00069764   40.09651660
     atom   79 type  1   force =     0.00595315   -0.00109652    8.51515250
     atom   80 type  1   force =    -0.00025144   -0.00224244   -3.41230202
     atom   81 type  1   force =     0.00110397   -0.00071027   58.27051168
     atom   82 type  2   force =    -0.72344891   -0.18756146   99.19938620
     atom   83 type  2   force =     0.52373741   -0.53320947   99.19919323
     atom   84 type  2   force =     0.19961599    0.71967066   99.19970238
     atom   85 type  2   force =    -0.06797509    0.17536550   -4.92068512
     atom   86 type  2   force =    -0.05198048   -0.17115686   -4.94421126
     atom   87 type  2   force =     0.16992184   -0.04954193   -4.76761183
     atom   88 type  2   force =     1.15418164    0.25990444   47.88360044
     atom   89 type  2   force =    -0.78633755    0.86682582   47.86548197
     atom   90 type  2   force =    -0.35108594   -1.13154242   47.88287817
     atom   91 type  1   force =    -0.00335263   -0.00165257   33.93176071
     atom   92 type  1   force =    -0.00031335   -0.00208023   12.46261344
     atom   93 type  1   force =     0.00001830   -0.00190303   40.09600222
     atom   94 type  1   force =    -0.00301463   -0.00503611    8.51306305
     atom   95 type  1   force =    -0.03599105   -0.04863238   -3.55664317
     atom   96 type  1   force =    -0.00008579   -0.00027269   58.27184803
     atom   97 type  2   force =    -0.72734982   -0.18934078   99.19098891
     atom   98 type  2   force =     0.52223104   -0.53364025   99.19361148
     atom   99 type  2   force =     0.19560876    0.71501754   99.19720002
     atom  100 type  2   force =    -0.14159163    0.24078697   -4.97016914
     atom  101 type  2   force =    -0.07581558   -0.24383447   -4.87594901
     atom  102 type  2   force =     0.20206530   -0.08010832   -4.91940314
     atom  103 type  2   force =     1.14455529    0.24731293   47.86499061
     atom  104 type  2   force =    -0.79286843    0.87166333   47.86379983
     atom  105 type  2   force =    -0.36227472   -1.13720613   47.87248233
     atom  106 type  1   force =     0.00001388    0.00012224   33.93134647
     atom  107 type  1   force =    -0.00253614    0.00147279   12.46367007
     atom  108 type  1   force =     0.00099481    0.00057454   40.09143544
     atom  109 type  1   force =    -0.00101144    0.00246487    8.50760586
     atom  110 type  1   force =     0.00008477    0.00054769   -3.62407532
     atom  111 type  1   force =    -0.00031776    0.00022953   58.27199851
     atom  112 type  2   force =    -0.72332567   -0.18769169   99.19423377
     atom  113 type  2   force =     0.52435220   -0.53264782   99.19421554
     atom  114 type  2   force =     0.19901430    0.72067599   99.19406054
     atom  115 type  2   force =    -0.17604561    0.18782086   -4.87431430
     atom  116 type  2   force =    -0.17280831   -0.13685713   -4.91482294
     atom  117 type  2   force =     0.27610937    0.00525647   -4.96701598
     atom  118 type  2   force =     1.15550467    0.25360807   47.86528030
     atom  119 type  2   force =    -0.80453725    0.88222539   47.87458432
     atom  120 type  2   force =    -0.35899527   -1.12652057   47.86571669
     atom  121 type  1   force =    -0.00417058   -0.00201655   33.93218657
     atom  122 type  1   force =    -0.00760589   -0.00738271   12.45913914
     atom  123 type  1   force =    -0.00169164    0.00061971   40.09646575
     atom  124 type  1   force =    -0.00305495    0.00396811    8.51492892
     atom  125 type  1   force =    -0.07330484   -0.00779048   -3.55244036
     atom  126 type  1   force =    -0.00110357   -0.00073173   58.27048671
     atom  127 type  2   force =    -0.72433528   -0.19056994   99.19211613
     atom  128 type  2   force =     0.51943857   -0.53456445   99.19354761
     atom  129 type  2   force =     0.19593586    0.71915126   99.19700378
     atom  130 type  2   force =    -0.12182090    0.12770167   -4.94428448
     atom  131 type  2   force =    -0.12489075   -0.12374354   -4.77223828
     atom  132 type  2   force =     0.18775641   -0.03467056   -4.91854383
     atom  133 type  2   force =     1.15029079    0.25031604   47.86446999
     atom  134 type  2   force =    -0.80338838    0.86831450   47.88180997
     atom  135 type  2   force =    -0.36856778   -1.13338490   47.88011694
     atom  136 type  3   force =     0.00030598    0.00674204 -168.89160981
     atom  137 type  4   force =     0.04024842   -0.20937250 -111.91445447
     atom  138 type  4   force =    -0.02658976   -0.03348335  -43.75660775
     atom  139 type  3   force =    -0.03912179   -0.36107284 -168.30846548
     atom  140 type  4   force =    -0.09580731   -0.29916286 -110.98470248
     atom  141 type  4   force =    -0.00285541   -0.08141767  -43.37254517
     atom  142 type  3   force =    -0.47270879   -0.20186682 -167.41783047
     atom  143 type  4   force =    -0.35314979    0.07617024 -111.18626160
     atom  144 type  4   force =    -0.05655412   -0.00092186  -43.64212715
     atom  145 type  3   force =    -0.33476664    0.08853272 -169.36694445
     atom  146 type  4   force =    -0.19894925    0.06767125 -111.91640988
     atom  147 type  4   force =    -0.02687062    0.04710068  -43.77439433
     atom  148 type  3   force =    -0.30492259    0.22642709 -168.35129510
     atom  149 type  4   force =    -0.15301272   -0.03485713 -111.86895181
     atom  150 type  4   force =    -0.00694231   -0.00751560  -43.79333910
     atom  151 type  3   force =     0.07857193   -0.33025884 -169.34976940
     atom  152 type  4   force =     0.10932057   -0.34036165 -111.17761368
     atom  153 type  4   force =     0.02094262   -0.05255070  -43.62939077
     atom  154 type  3   force =     0.00846455   -0.47623205 -165.52443811
     atom  155 type  4   force =    -0.00088699   -0.00321365 -110.10889648
     atom  156 type  4   force =    -0.00174534   -0.01260841  -43.30279816
     atom  157 type  3   force =    -0.41475321    0.20952676 -165.56267324
     atom  158 type  4   force =    -0.21086167    0.23120125 -110.98849247
     atom  159 type  4   force =    -0.06999957    0.05055987  -43.40696921
     atom  160 type  3   force =     0.06742552    0.51557164 -167.46893366
     atom  161 type  4   force =     0.01201998    0.08625126 -111.60285879
     atom  162 type  4   force =     0.01475124   -0.02027982  -43.61243119
     atom  163 type  3   force =    -0.05049243    0.04266376 -168.37687216
     atom  164 type  4   force =     0.06916404   -0.05318195 -111.60841602
     atom  165 type  4   force =    -0.03658458    0.00262372  -43.60002112
     atom  166 type  3   force =     0.40614843   -0.31586835 -167.40674352
     atom  167 type  4   force =     0.30833156    0.06245382 -110.99403411
     atom  168 type  4   force =     0.07403220    0.02390712  -43.39289001
     atom  169 type  3   force =     0.40211824    0.22590461 -165.56192792
     atom  170 type  4   force =     0.24313159    0.26451716 -111.18503210
     atom  171 type  4   force =     0.03500497    0.05455781  -43.65699303
     atom  172 type  3   force =     0.25564697    0.24724426 -169.38344117
     atom  173 type  4   force =     0.10373074   -0.11483117 -111.86657543
     atom  174 type  4   force =     0.01936746    0.01325296  -43.79653734
     atom  175 type  3   force =     0.00081282   -0.04296227 -168.37375110
     atom  176 type  4   force =    -0.08136005   -0.03630471 -111.61341489
     atom  177 type  4   force =     0.02221027    0.02419113  -43.59747951
     atom  178 type  3   force =     0.05164565    0.02530985 -168.40847253
     atom  179 type  4   force =     0.04909055    0.14448697 -111.87914194
     atom  180 type  4   force =    -0.01123672    0.01006950  -43.79870171
     atom  181 type  3   force =     0.34548377    0.13858252 -168.35640473
     atom  182 type  4   force =     0.15825003    0.13622814 -111.91585873
     atom  183 type  4   force =     0.05400643    0.00651722  -43.77518965
     The core correction contribution to forces
     atom    1 type  1   force =    -0.00000020   -0.00000008    0.00828521
     atom    2 type  1   force =    -0.00000009   -0.00006007    0.00756752
     atom    3 type  1   force =    -0.00003579   -0.00001058   -0.00918099
     atom    4 type  1   force =    -0.00019269   -0.00015134    0.00944429
     atom    5 type  1   force =     0.00000059   -0.00000088   -0.01272480
     atom    6 type  1   force =    -0.00001141   -0.00001759    0.02803935
     atom    7 type  2   force =    -0.00617775   -0.00112183    0.00105228
     atom    8 type  2   force =     0.00406039   -0.00478934    0.00105224
     atom    9 type  2   force =     0.00211741    0.00591102    0.00105240
     atom   10 type  2   force =    -0.00423243    0.00389733    0.00587626
     atom   11 type  2   force =    -0.00112419   -0.00559676    0.00593380
     atom   12 type  2   force =     0.00534999    0.00171730    0.00581821
     atom   13 type  2   force =    -0.00083729   -0.00116687   -0.00045026
     atom   14 type  2   force =     0.00141881   -0.00020828   -0.00044772
     atom   15 type  2   force =    -0.00059222    0.00130835   -0.00045017
     atom   16 type  1   force =     0.00006876    0.00010205    0.00831294
     atom   17 type  1   force =     0.00025117    0.00008230    0.00763761
     atom   18 type  1   force =     0.00001988    0.00000520   -0.00921228
     atom   19 type  1   force =    -0.00002498   -0.00006329    0.00934290
     atom   20 type  1   force =     0.00007616    0.00017822   -0.01212937
     atom   21 type  1   force =     0.00002751   -0.00000188    0.02802085
     atom   22 type  2   force =    -0.00616771   -0.00109167    0.00106406
     atom   23 type  2   force =     0.00407535   -0.00477063    0.00108124
     atom   24 type  2   force =     0.00212532    0.00591782    0.00104535
     atom   25 type  2   force =    -0.00395906    0.00378393    0.00613471
     atom   26 type  2   force =    -0.00099816   -0.00553616    0.00575351
     atom   27 type  2   force =     0.00549503    0.00190709    0.00588895
     atom   28 type  2   force =    -0.00083590   -0.00107546   -0.00042972
     atom   29 type  2   force =     0.00144070   -0.00015022   -0.00047353
     atom   30 type  2   force =    -0.00050261    0.00136902   -0.00044748
     atom   31 type  1   force =     0.00006251   -0.00000452    0.00831425
     atom   32 type  1   force =     0.00005121    0.00003079    0.00756757
     atom   33 type  1   force =    -0.00001477    0.00001446   -0.00921265
     atom   34 type  1   force =     0.00006563    0.00000973    0.00934252
     atom   35 type  1   force =     0.00023816    0.00004482   -0.01220245
     atom   36 type  1   force =     0.00002089   -0.00000086    0.02803946
     atom   37 type  2   force =    -0.00612315   -0.00111070    0.00109607
     atom   38 type  2   force =     0.00408867   -0.00479912    0.00105266
     atom   39 type  2   force =     0.00214701    0.00592332    0.00104532
     atom   40 type  2   force =    -0.00416276    0.00377540    0.00581744
     atom   41 type  2   force =    -0.00125989   -0.00561428    0.00587689
     atom   42 type  2   force =     0.00540844    0.00182528    0.00593317
     atom   43 type  2   force =    -0.00076333   -0.00111802   -0.00034979
     atom   44 type  2   force =     0.00134896   -0.00018599   -0.00042920
     atom   45 type  2   force =    -0.00052941    0.00133306   -0.00044829
     atom   46 type  1   force =     0.00005410   -0.00011084    0.00831333
     atom   47 type  1   force =    -0.00005187    0.00002906    0.00756749
     atom   48 type  1   force =     0.00002679   -0.00002567   -0.00918115
     atom   49 type  1   force =     0.00022793   -0.00009096    0.00944422
     atom   50 type  1   force =     0.00011707   -0.00015599   -0.01213384
     atom   51 type  1   force =    -0.00000957    0.00001868    0.02803939
     atom   52 type  2   force =    -0.00616899   -0.00114413    0.00108157
     atom   53 type  2   force =     0.00406240   -0.00479976    0.00104536
     atom   54 type  2   force =     0.00213853    0.00588711    0.00106420
     atom   55 type  2   force =    -0.00428396    0.00377097    0.00593297
     atom   56 type  2   force =    -0.00118731   -0.00549228    0.00581788
     atom   57 type  2   force =     0.00549223    0.00171605    0.00587652
     atom   58 type  2   force =    -0.00081536   -0.00124419   -0.00027129
     atom   59 type  2   force =     0.00142939   -0.00014181   -0.00045040
     atom   60 type  2   force =    -0.00051323    0.00126132   -0.00042921
     atom   61 type  1   force =    -0.00002708    0.00005634    0.00831419
     atom   62 type  1   force =     0.00000558    0.00020710    0.00781480
     atom   63 type  1   force =     0.00000875    0.00003582   -0.00918138
     atom   64 type  1   force =    -0.00003466    0.00024234    0.00944395
     atom   65 type  1   force =    -0.00015779    0.00018404   -0.01219945
     atom   66 type  1   force =    -0.00000593    0.00002918    0.02793254
     atom   67 type  2   force =    -0.00620323   -0.00110235    0.00104534
     atom   68 type  2   force =     0.00402352   -0.00474743    0.00109604
     atom   69 type  2   force =     0.00211191    0.00594043    0.00105257
     atom   70 type  2   force =    -0.00420099    0.00362832    0.00658738
     atom   71 type  2   force =    -0.00090678   -0.00523349    0.00633634
     atom   72 type  2   force =     0.00523952    0.00208122    0.00611660
     atom   73 type  2   force =    -0.00088946   -0.00112502   -0.00044822
     atom   74 type  2   force =     0.00148540   -0.00008410   -0.00027219
     atom   75 type  2   force =    -0.00058063    0.00140411   -0.00034816
     atom   76 type  1   force =     0.00000025    0.00000035    0.00840751
     atom   77 type  1   force =     0.00017743   -0.00010718    0.00781542
     atom   78 type  1   force =     0.00004392    0.00003081   -0.00908117
     atom   79 type  1   force =     0.00022190    0.00008762    0.00955460
     atom   80 type  1   force =    -0.00000011    0.00000098   -0.01057831
     atom   81 type  1   force =     0.00002811   -0.00000935    0.02793222
     atom   82 type  2   force =    -0.00617691   -0.00111096    0.00110657
     atom   83 type  2   force =     0.00405068   -0.00479357    0.00110664
     atom   84 type  2   force =     0.00212624    0.00590502    0.00110648
     atom   85 type  2   force =    -0.00407937    0.00340344    0.00633796
     atom   86 type  2   force =    -0.00081770   -0.00557902    0.00611636
     atom   87 type  2   force =     0.00524433    0.00182483    0.00658547
     atom   88 type  2   force =    -0.00089242   -0.00110796   -0.00022813
     atom   89 type  2   force =     0.00150654   -0.00019902   -0.00034789
     atom   90 type  2   force =    -0.00051322    0.00132753   -0.00022805
     atom   91 type  1   force =    -0.00003557   -0.00005179    0.00831465
     atom   92 type  1   force =    -0.00005386   -0.00025887    0.00763853
     atom   93 type  1   force =     0.00000469   -0.00005341   -0.00908044
     atom   94 type  1   force =    -0.00003503   -0.00023608    0.00955544
     atom   95 type  1   force =    -0.00008097   -0.00022903   -0.01220264
     atom   96 type  1   force =    -0.00001551   -0.00002297    0.02802037
     atom   97 type  2   force =    -0.00620058   -0.00114133    0.00105280
     atom   98 type  2   force =     0.00405613   -0.00482103    0.00104555
     atom   99 type  2   force =     0.00209957    0.00585808    0.00109632
     atom  100 type  2   force =    -0.00429592    0.00363147    0.00575549
     atom  101 type  2   force =    -0.00109509   -0.00571385    0.00589048
     atom  102 type  2   force =     0.00525791    0.00153679    0.00613494
     atom  103 type  2   force =    -0.00092599   -0.00120483   -0.00034743
     atom  104 type  2   force =     0.00143752   -0.00024961   -0.00044702
     atom  105 type  2   force =    -0.00058656    0.00122004   -0.00034875
     atom  106 type  1   force =    -0.00000004   -0.00000033    0.00824883
     atom  107 type  1   force =    -0.00019679    0.00017571    0.00763747
     atom  108 type  1   force =    -0.00000511   -0.00002026   -0.00921237
     atom  109 type  1   force =    -0.00004063    0.00005234    0.00934292
     atom  110 type  1   force =    -0.00000094   -0.00000102   -0.01257944
     atom  111 type  1   force =    -0.00001230    0.00002498    0.02802084
     atom  112 type  2   force =    -0.00617808   -0.00112171    0.00103708
     atom  113 type  2   force =     0.00406026   -0.00478955    0.00103700
     atom  114 type  2   force =     0.00211763    0.00591103    0.00103710
     atom  115 type  2   force =    -0.00439996    0.00380497    0.00588948
     atom  116 type  2   force =    -0.00129779   -0.00532128    0.00613316
     atom  117 type  2   force =     0.00529333    0.00190358    0.00575431
     atom  118 type  2   force =    -0.00085046   -0.00117310   -0.00047300
     atom  119 type  2   force =     0.00135004   -0.00010206   -0.00034980
     atom  120 type  2   force =    -0.00059029    0.00132241   -0.00047314
     atom  121 type  1   force =    -0.00012289    0.00000882    0.00831312
     atom  122 type  1   force =    -0.00018207   -0.00009820    0.00781569
     atom  123 type  1   force =    -0.00004860    0.00002265   -0.00908105
     atom  124 type  1   force =    -0.00018760    0.00014911    0.00955477
     atom  125 type  1   force =    -0.00019310   -0.00002207   -0.01213298
     atom  126 type  1   force =    -0.00002233   -0.00001940    0.02793208
     atom  127 type  2   force =    -0.00618784   -0.00111823    0.00104530
     atom  128 type  2   force =     0.00402905   -0.00479534    0.00106422
     atom  129 type  2   force =     0.00209377    0.00591475    0.00108134
     atom  130 type  2   force =    -0.00442310    0.00349875    0.00611651
     atom  131 type  2   force =    -0.00104269   -0.00545350    0.00658532
     atom  132 type  2   force =     0.00498643    0.00183268    0.00633713
     atom  133 type  2   force =    -0.00093456   -0.00111981   -0.00044752
     atom  134 type  2   force =     0.00140599   -0.00021859   -0.00022750
     atom  135 type  2   force =    -0.00066992    0.00132888   -0.00027179
     atom  136 type  3   force =    -0.00000516   -0.00000420   -0.00080855
     atom  137 type  4   force =    -0.00003141    0.00000805    0.02992472
     atom  138 type  4   force =     0.00040546    0.00127159   -0.03010233
     atom  139 type  3   force =     0.00010329    0.00027792   -0.00064914
     atom  140 type  4   force =     0.00020744    0.00035393    0.02963172
     atom  141 type  4   force =    -0.00002647    0.00128156   -0.02580075
     atom  142 type  3   force =     0.00055092    0.00013925   -0.00083433
     atom  143 type  4   force =     0.00039900   -0.00004466    0.03022480
     atom  144 type  4   force =     0.00028234   -0.00038553   -0.02516571
     atom  145 type  3   force =     0.00027065    0.00008960   -0.00050071
     atom  146 type  4   force =     0.00006057   -0.00003901    0.02994296
     atom  147 type  4   force =     0.00085836   -0.00097859   -0.03008910
     atom  148 type  3   force =     0.00020797   -0.00023700   -0.00063816
     atom  149 type  4   force =     0.00010500    0.00002313    0.03053302
     atom  150 type  4   force =     0.00019459    0.00083599   -0.03001581
     atom  151 type  3   force =    -0.00019364    0.00019677   -0.00049843
     atom  152 type  4   force =    -0.00016699    0.00039819    0.03020504
     atom  153 type  4   force =     0.00021445    0.00045547   -0.02516751
     atom  154 type  3   force =    -0.00002872    0.00035707   -0.00114272
     atom  155 type  4   force =    -0.00001025   -0.00003448    0.02958864
     atom  156 type  4   force =    -0.00000441   -0.00001576   -0.02119614
     atom  157 type  3   force =     0.00031911   -0.00013476   -0.00113770
     atom  158 type  4   force =     0.00022521   -0.00038369    0.02964888
     atom  159 type  4   force =     0.00109364   -0.00054014   -0.02577230
     atom  160 type  3   force =    -0.00014695   -0.00054161   -0.00081988
     atom  161 type  4   force =     0.00008565   -0.00012974    0.03078197
     atom  162 type  4   force =     0.00013114   -0.00014952   -0.03017937
     atom  163 type  3   force =     0.00010347   -0.00006820   -0.00113612
     atom  164 type  4   force =    -0.00016882   -0.00002470    0.03078483
     atom  165 type  4   force =    -0.00022418    0.00002118   -0.03018509
     atom  166 type  3   force =    -0.00039888    0.00040115   -0.00084614
     atom  167 type  4   force =    -0.00040607   -0.00005733    0.02966696
     atom  168 type  4   force =    -0.00105325   -0.00067733   -0.02577304
     atom  169 type  3   force =    -0.00029318   -0.00019143   -0.00113721
     atom  170 type  4   force =    -0.00023728   -0.00036653    0.03021543
     atom  171 type  4   force =    -0.00049451    0.00004793   -0.02515669
     atom  172 type  3   force =    -0.00007943   -0.00026377   -0.00048833
     atom  173 type  4   force =    -0.00010816    0.00005221    0.03054305
     atom  174 type  4   force =    -0.00079246   -0.00023654   -0.03001194
     atom  175 type  3   force =    -0.00000492    0.00010517   -0.00114090
     atom  176 type  4   force =     0.00006795    0.00008374    0.03078261
     atom  177 type  4   force =     0.00009572    0.00020571   -0.03017775
     atom  178 type  3   force =    -0.00010593   -0.00007089   -0.00111590
     atom  179 type  4   force =     0.00001283   -0.00013615    0.03054763
     atom  180 type  4   force =     0.00059445   -0.00051078   -0.03002542
     atom  181 type  3   force =    -0.00029801   -0.00004740   -0.00063574
     atom  182 type  4   force =    -0.00004643   -0.00007414    0.02993112
     atom  183 type  4   force =    -0.00126085   -0.00021381   -0.03010478
     The Hubbard contrib.    to forces
     atom    1 type  1   force =     0.00000000    0.00000000    0.00000000
     atom    2 type  1   force =     0.00000000    0.00000000    0.00000000
     atom    3 type  1   force =     0.00000000    0.00000000    0.00000000
     atom    4 type  1   force =     0.00000000    0.00000000    0.00000000
     atom    5 type  1   force =     0.00000000    0.00000000    0.00000000
     atom    6 type  1   force =     0.00000000    0.00000000    0.00000000
     atom    7 type  2   force =     0.00000000    0.00000000    0.00000000
     atom    8 type  2   force =     0.00000000    0.00000000    0.00000000
     atom    9 type  2   force =     0.00000000    0.00000000    0.00000000
     atom   10 type  2   force =     0.00000000    0.00000000    0.00000000
     atom   11 type  2   force =     0.00000000    0.00000000    0.00000000
     atom   12 type  2   force =     0.00000000    0.00000000    0.00000000
     atom   13 type  2   force =     0.00000000    0.00000000    0.00000000
     atom   14 type  2   force =     0.00000000    0.00000000    0.00000000
     atom   15 type  2   force =     0.00000000    0.00000000    0.00000000
     atom   16 type  1   force =     0.00000000    0.00000000    0.00000000
     atom   17 type  1   force =     0.00000000    0.00000000    0.00000000
     atom   18 type  1   force =     0.00000000    0.00000000    0.00000000
     atom   19 type  1   force =     0.00000000    0.00000000    0.00000000
     atom   20 type  1   force =     0.00000000    0.00000000    0.00000000
     atom   21 type  1   force =     0.00000000    0.00000000    0.00000000
     atom   22 type  2   force =     0.00000000    0.00000000    0.00000000
     atom   23 type  2   force =     0.00000000    0.00000000    0.00000000
     atom   24 type  2   force =     0.00000000    0.00000000    0.00000000
     atom   25 type  2   force =     0.00000000    0.00000000    0.00000000
     atom   26 type  2   force =     0.00000000    0.00000000    0.00000000
     atom   27 type  2   force =     0.00000000    0.00000000    0.00000000
     atom   28 type  2   force =     0.00000000    0.00000000    0.00000000
     atom   29 type  2   force =     0.00000000    0.00000000    0.00000000
     atom   30 type  2   force =     0.00000000    0.00000000    0.00000000
     atom   31 type  1   force =     0.00000000    0.00000000    0.00000000
     atom   32 type  1   force =     0.00000000    0.00000000    0.00000000
     atom   33 type  1   force =     0.00000000    0.00000000    0.00000000
     atom   34 type  1   force =     0.00000000    0.00000000    0.00000000
     atom   35 type  1   force =     0.00000000    0.00000000    0.00000000
     atom   36 type  1   force =     0.00000000    0.00000000    0.00000000
     atom   37 type  2   force =     0.00000000    0.00000000    0.00000000
     atom   38 type  2   force =     0.00000000    0.00000000    0.00000000
     atom   39 type  2   force =     0.00000000    0.00000000    0.00000000
     atom   40 type  2   force =     0.00000000    0.00000000    0.00000000
     atom   41 type  2   force =     0.00000000    0.00000000    0.00000000
     atom   42 type  2   force =     0.00000000    0.00000000    0.00000000
     atom   43 type  2   force =     0.00000000    0.00000000    0.00000000
     atom   44 type  2   force =     0.00000000    0.00000000    0.00000000
     atom   45 type  2   force =     0.00000000    0.00000000    0.00000000
     atom   46 type  1   force =     0.00000000    0.00000000    0.00000000
     atom   47 type  1   force =     0.00000000    0.00000000    0.00000000
     atom   48 type  1   force =     0.00000000    0.00000000    0.00000000
     atom   49 type  1   force =     0.00000000    0.00000000    0.00000000
     atom   50 type  1   force =     0.00000000    0.00000000    0.00000000
     atom   51 type  1   force =     0.00000000    0.00000000    0.00000000
     atom   52 type  2   force =     0.00000000    0.00000000    0.00000000
     atom   53 type  2   force =     0.00000000    0.00000000    0.00000000
     atom   54 type  2   force =     0.00000000    0.00000000    0.00000000
     atom   55 type  2   force =     0.00000000    0.00000000    0.00000000
     atom   56 type  2   force =     0.00000000    0.00000000    0.00000000
     atom   57 type  2   force =     0.00000000    0.00000000    0.00000000
     atom   58 type  2   force =     0.00000000    0.00000000    0.00000000
     atom   59 type  2   force =     0.00000000    0.00000000    0.00000000
     atom   60 type  2   force =     0.00000000    0.00000000    0.00000000
     atom   61 type  1   force =     0.00000000    0.00000000    0.00000000
     atom   62 type  1   force =     0.00000000    0.00000000    0.00000000
     atom   63 type  1   force =     0.00000000    0.00000000    0.00000000
     atom   64 type  1   force =     0.00000000    0.00000000    0.00000000
     atom   65 type  1   force =     0.00000000    0.00000000    0.00000000
     atom   66 type  1   force =     0.00000000    0.00000000    0.00000000
     atom   67 type  2   force =     0.00000000    0.00000000    0.00000000
     atom   68 type  2   force =     0.00000000    0.00000000    0.00000000
     atom   69 type  2   force =     0.00000000    0.00000000    0.00000000
     atom   70 type  2   force =     0.00000000    0.00000000    0.00000000
     atom   71 type  2   force =     0.00000000    0.00000000    0.00000000
     atom   72 type  2   force =     0.00000000    0.00000000    0.00000000
     atom   73 type  2   force =     0.00000000    0.00000000    0.00000000
     atom   74 type  2   force =     0.00000000    0.00000000    0.00000000
     atom   75 type  2   force =     0.00000000    0.00000000    0.00000000
     atom   76 type  1   force =     0.00000000    0.00000000    0.00000000
     atom   77 type  1   force =     0.00000000    0.00000000    0.00000000
     atom   78 type  1   force =     0.00000000    0.00000000    0.00000000
     atom   79 type  1   force =     0.00000000    0.00000000    0.00000000
     atom   80 type  1   force =     0.00000000    0.00000000    0.00000000
     atom   81 type  1   force =     0.00000000    0.00000000    0.00000000
     atom   82 type  2   force =     0.00000000    0.00000000    0.00000000
     atom   83 type  2   force =     0.00000000    0.00000000    0.00000000
     atom   84 type  2   force =     0.00000000    0.00000000    0.00000000
     atom   85 type  2   force =     0.00000000    0.00000000    0.00000000
     atom   86 type  2   force =     0.00000000    0.00000000    0.00000000
     atom   87 type  2   force =     0.00000000    0.00000000    0.00000000
     atom   88 type  2   force =     0.00000000    0.00000000    0.00000000
     atom   89 type  2   force =     0.00000000    0.00000000    0.00000000
     atom   90 type  2   force =     0.00000000    0.00000000    0.00000000
     atom   91 type  1   force =     0.00000000    0.00000000    0.00000000
     atom   92 type  1   force =     0.00000000    0.00000000    0.00000000
     atom   93 type  1   force =     0.00000000    0.00000000    0.00000000
     atom   94 type  1   force =     0.00000000    0.00000000    0.00000000
     atom   95 type  1   force =     0.00000000    0.00000000    0.00000000
     atom   96 type  1   force =     0.00000000    0.00000000    0.00000000
     atom   97 type  2   force =     0.00000000    0.00000000    0.00000000
     atom   98 type  2   force =     0.00000000    0.00000000    0.00000000
     atom   99 type  2   force =     0.00000000    0.00000000    0.00000000
     atom  100 type  2   force =     0.00000000    0.00000000    0.00000000
     atom  101 type  2   force =     0.00000000    0.00000000    0.00000000
     atom  102 type  2   force =     0.00000000    0.00000000    0.00000000
     atom  103 type  2   force =     0.00000000    0.00000000    0.00000000
     atom  104 type  2   force =     0.00000000    0.00000000    0.00000000
     atom  105 type  2   force =     0.00000000    0.00000000    0.00000000
     atom  106 type  1   force =     0.00000000    0.00000000    0.00000000
     atom  107 type  1   force =     0.00000000    0.00000000    0.00000000
     atom  108 type  1   force =     0.00000000    0.00000000    0.00000000
     atom  109 type  1   force =     0.00000000    0.00000000    0.00000000
     atom  110 type  1   force =     0.00000000    0.00000000    0.00000000
     atom  111 type  1   force =     0.00000000    0.00000000    0.00000000
     atom  112 type  2   force =     0.00000000    0.00000000    0.00000000
     atom  113 type  2   force =     0.00000000    0.00000000    0.00000000
     atom  114 type  2   force =     0.00000000    0.00000000    0.00000000
     atom  115 type  2   force =     0.00000000    0.00000000    0.00000000
     atom  116 type  2   force =     0.00000000    0.00000000    0.00000000
     atom  117 type  2   force =     0.00000000    0.00000000    0.00000000
     atom  118 type  2   force =     0.00000000    0.00000000    0.00000000
     atom  119 type  2   force =     0.00000000    0.00000000    0.00000000
     atom  120 type  2   force =     0.00000000    0.00000000    0.00000000
     atom  121 type  1   force =     0.00000000    0.00000000    0.00000000
     atom  122 type  1   force =     0.00000000    0.00000000    0.00000000
     atom  123 type  1   force =     0.00000000    0.00000000    0.00000000
     atom  124 type  1   force =     0.00000000    0.00000000    0.00000000
     atom  125 type  1   force =     0.00000000    0.00000000    0.00000000
     atom  126 type  1   force =     0.00000000    0.00000000    0.00000000
     atom  127 type  2   force =     0.00000000    0.00000000    0.00000000
     atom  128 type  2   force =     0.00000000    0.00000000    0.00000000
     atom  129 type  2   force =     0.00000000    0.00000000    0.00000000
     atom  130 type  2   force =     0.00000000    0.00000000    0.00000000
     atom  131 type  2   force =     0.00000000    0.00000000    0.00000000
     atom  132 type  2   force =     0.00000000    0.00000000    0.00000000
     atom  133 type  2   force =     0.00000000    0.00000000    0.00000000
     atom  134 type  2   force =     0.00000000    0.00000000    0.00000000
     atom  135 type  2   force =     0.00000000    0.00000000    0.00000000
     atom  136 type  3   force =     0.00000000    0.00000000    0.00000000
     atom  137 type  4   force =     0.00000000    0.00000000    0.00000000
     atom  138 type  4   force =     0.00000000    0.00000000    0.00000000
     atom  139 type  3   force =     0.00000000    0.00000000    0.00000000
     atom  140 type  4   force =     0.00000000    0.00000000    0.00000000
     atom  141 type  4   force =     0.00000000    0.00000000    0.00000000
     atom  142 type  3   force =     0.00000000    0.00000000    0.00000000
     atom  143 type  4   force =     0.00000000    0.00000000    0.00000000
     atom  144 type  4   force =     0.00000000    0.00000000    0.00000000
     atom  145 type  3   force =     0.00000000    0.00000000    0.00000000
     atom  146 type  4   force =     0.00000000    0.00000000    0.00000000
     atom  147 type  4   force =     0.00000000    0.00000000    0.00000000
     atom  148 type  3   force =     0.00000000    0.00000000    0.00000000
     atom  149 type  4   force =     0.00000000    0.00000000    0.00000000
     atom  150 type  4   force =     0.00000000    0.00000000    0.00000000
     atom  151 type  3   force =     0.00000000    0.00000000    0.00000000
     atom  152 type  4   force =     0.00000000    0.00000000    0.00000000
     atom  153 type  4   force =     0.00000000    0.00000000    0.00000000
     atom  154 type  3   force =     0.00000000    0.00000000    0.00000000
     atom  155 type  4   force =     0.00000000    0.00000000    0.00000000
     atom  156 type  4   force =     0.00000000    0.00000000    0.00000000
     atom  157 type  3   force =     0.00000000    0.00000000    0.00000000
     atom  158 type  4   force =     0.00000000    0.00000000    0.00000000
     atom  159 type  4   force =     0.00000000    0.00000000    0.00000000
     atom  160 type  3   force =     0.00000000    0.00000000    0.00000000
     atom  161 type  4   force =     0.00000000    0.00000000    0.00000000
     atom  162 type  4   force =     0.00000000    0.00000000    0.00000000
     atom  163 type  3   force =     0.00000000    0.00000000    0.00000000
     atom  164 type  4   force =     0.00000000    0.00000000    0.00000000
     atom  165 type  4   force =     0.00000000    0.00000000    0.00000000
     atom  166 type  3   force =     0.00000000    0.00000000    0.00000000
     atom  167 type  4   force =     0.00000000    0.00000000    0.00000000
     atom  168 type  4   force =     0.00000000    0.00000000    0.00000000
     atom  169 type  3   force =     0.00000000    0.00000000    0.00000000
     atom  170 type  4   force =     0.00000000    0.00000000    0.00000000
     atom  171 type  4   force =     0.00000000    0.00000000    0.00000000
     atom  172 type  3   force =     0.00000000    0.00000000    0.00000000
     atom  173 type  4   force =     0.00000000    0.00000000    0.00000000
     atom  174 type  4   force =     0.00000000    0.00000000    0.00000000
     atom  175 type  3   force =     0.00000000    0.00000000    0.00000000
     atom  176 type  4   force =     0.00000000    0.00000000    0.00000000
     atom  177 type  4   force =     0.00000000    0.00000000    0.00000000
     atom  178 type  3   force =     0.00000000    0.00000000    0.00000000
     atom  179 type  4   force =     0.00000000    0.00000000    0.00000000
     atom  180 type  4   force =     0.00000000    0.00000000    0.00000000
     atom  181 type  3   force =     0.00000000    0.00000000    0.00000000
     atom  182 type  4   force =     0.00000000    0.00000000    0.00000000
     atom  183 type  4   force =     0.00000000    0.00000000    0.00000000
     The SCF correction term to forces
     atom    1 type  1   force =    -0.00000020   -0.00000008   -0.00000418
     atom    2 type  1   force =    -0.00000001    0.00000020   -0.00001022
     atom    3 type  1   force =     0.00000056   -0.00000042   -0.00000347
     atom    4 type  1   force =    -0.00000027    0.00000001   -0.00001104
     atom    5 type  1   force =    -0.00000005    0.00000010   -0.00001443
     atom    6 type  1   force =    -0.00000039    0.00000057    0.00000097
     atom    7 type  2   force =     0.00000012    0.00000066    0.00000089
     atom    8 type  2   force =    -0.00000129   -0.00000000    0.00000080
     atom    9 type  2   force =     0.00000037   -0.00000145    0.00000095
     atom   10 type  2   force =     0.00000112   -0.00000155   -0.00003082
     atom   11 type  2   force =     0.00000128    0.00000125   -0.00003032
     atom   12 type  2   force =     0.00000035   -0.00000034   -0.00003027
     atom   13 type  2   force =    -0.00000123    0.00000011   -0.00001147
     atom   14 type  2   force =     0.00000166   -0.00000022   -0.00001184
     atom   15 type  2   force =     0.00000074    0.00000059   -0.00001128
     atom   16 type  1   force =    -0.00000088   -0.00000056   -0.00000571
     atom   17 type  1   force =     0.00000063    0.00000054   -0.00001063
     atom   18 type  1   force =     0.00000068    0.00000116   -0.00000406
     atom   19 type  1   force =     0.00000031    0.00000006   -0.00001082
     atom   20 type  1   force =    -0.00000004   -0.00000007   -0.00001455
     atom   21 type  1   force =     0.00000064   -0.00000080    0.00000143
     atom   22 type  2   force =    -0.00000353   -0.00000071    0.00000135
     atom   23 type  2   force =    -0.00000041   -0.00000288   -0.00000064
     atom   24 type  2   force =     0.00000143    0.00000169    0.00000024
     atom   25 type  2   force =     0.00000023    0.00000060   -0.00003117
     atom   26 type  2   force =     0.00000126    0.00000042   -0.00003057
     atom   27 type  2   force =    -0.00000068    0.00000026   -0.00003131
     atom   28 type  2   force =    -0.00000142    0.00000031   -0.00001343
     atom   29 type  2   force =     0.00000064   -0.00000080   -0.00001305
     atom   30 type  2   force =     0.00000213    0.00000142   -0.00001437
     atom   31 type  1   force =    -0.00000036   -0.00000059   -0.00000429
     atom   32 type  1   force =    -0.00000020   -0.00000018   -0.00001035
     atom   33 type  1   force =    -0.00000093    0.00000026   -0.00000431
     atom   34 type  1   force =    -0.00000011    0.00000026   -0.00001083
     atom   35 type  1   force =    -0.00000035   -0.00000004   -0.00001444
     atom   36 type  1   force =    -0.00000021   -0.00000099    0.00000114
     atom   37 type  2   force =    -0.00000218   -0.00000035    0.00000223
     atom   38 type  2   force =    -0.00000260   -0.00000060   -0.00000156
     atom   39 type  2   force =    -0.00000031   -0.00000088    0.00000058
     atom   40 type  2   force =    -0.00000015    0.00000042   -0.00003061
     atom   41 type  2   force =     0.00000081    0.00000175   -0.00003123
     atom   42 type  2   force =    -0.00000178    0.00000038   -0.00003026
     atom   43 type  2   force =    -0.00000036   -0.00000097   -0.00001239
     atom   44 type  2   force =     0.00000062   -0.00000137   -0.00001358
     atom   45 type  2   force =    -0.00000051    0.00000134   -0.00001268
     atom   46 type  1   force =    -0.00000019    0.00000102   -0.00000520
     atom   47 type  1   force =     0.00000007    0.00000003   -0.00000997
     atom   48 type  1   force =    -0.00000038    0.00000002   -0.00000338
     atom   49 type  1   force =    -0.00000002   -0.00000031   -0.00001104
     atom   50 type  1   force =     0.00000004    0.00000024   -0.00001438
     atom   51 type  1   force =     0.00000042    0.00000013    0.00000066
     atom   52 type  2   force =    -0.00000187    0.00000177   -0.00000084
     atom   53 type  2   force =     0.00000012   -0.00000133    0.00000003
     atom   54 type  2   force =     0.00000036    0.00000161    0.00000122
     atom   55 type  2   force =     0.00000044   -0.00000138   -0.00002964
     atom   56 type  2   force =    -0.00000041    0.00000015   -0.00002976
     atom   57 type  2   force =    -0.00000216    0.00000015   -0.00003080
     atom   58 type  2   force =    -0.00000088    0.00000105   -0.00000991
     atom   59 type  2   force =    -0.00000047   -0.00000086   -0.00001106
     atom   60 type  2   force =     0.00000053    0.00000101   -0.00001275
     atom   61 type  1   force =     0.00000043    0.00000000   -0.00000356
     atom   62 type  1   force =     0.00000022    0.00000012   -0.00000983
     atom   63 type  1   force =    -0.00000078   -0.00000023   -0.00000336
     atom   64 type  1   force =     0.00000012    0.00000028   -0.00001091
     atom   65 type  1   force =     0.00000013   -0.00000030   -0.00001384
     atom   66 type  1   force =    -0.00000158   -0.00000020    0.00000016
     atom   67 type  2   force =     0.00000156    0.00000045    0.00000034
     atom   68 type  2   force =    -0.00000002   -0.00000090    0.00000242
     atom   69 type  2   force =     0.00000033   -0.00000247   -0.00000149
     atom   70 type  2   force =     0.00000095   -0.00000158   -0.00002956
     atom   71 type  2   force =     0.00000034   -0.00000069   -0.00003107
     atom   72 type  2   force =    -0.00000008    0.00000056   -0.00003081
     atom   73 type  2   force =    -0.00000112   -0.00000085   -0.00001128
     atom   74 type  2   force =    -0.00000092   -0.00000177   -0.00001073
     atom   75 type  2   force =    -0.00000056    0.00000017   -0.00000871
     atom   76 type  1   force =    -0.00000002   -0.00000006   -0.00000348
     atom   77 type  1   force =     0.00000001   -0.00000053   -0.00000989
     atom   78 type  1   force =    -0.00000083   -0.00000122   -0.00000299
     atom   79 type  1   force =    -0.00000059    0.00000001   -0.00001132
     atom   80 type  1   force =     0.00000011   -0.00000001   -0.00001421
     atom   81 type  1   force =     0.00000028    0.00000067    0.00000014
     atom   82 type  2   force =     0.00000165    0.00000047   -0.00000308
     atom   83 type  2   force =    -0.00000128    0.00000110   -0.00000238
     atom   84 type  2   force =    -0.00000082   -0.00000200   -0.00000241
     atom   85 type  2   force =    -0.00000026    0.00000007   -0.00003113
     atom   86 type  2   force =     0.00000076   -0.00000004   -0.00003085
     atom   87 type  2   force =    -0.00000155   -0.00000022   -0.00003022
     atom   88 type  2   force =    -0.00000048   -0.00000114   -0.00000961
     atom   89 type  2   force =    -0.00000009   -0.00000065   -0.00000944
     atom   90 type  2   force =    -0.00000108    0.00000057   -0.00000988
     atom   91 type  1   force =    -0.00000011    0.00000053   -0.00000382
     atom   92 type  1   force =     0.00000022   -0.00000073   -0.00001029
     atom   93 type  1   force =    -0.00000052    0.00000079   -0.00000275
     atom   94 type  1   force =     0.00000063    0.00000036   -0.00001094
     atom   95 type  1   force =     0.00000013    0.00000001   -0.00001414
     atom   96 type  1   force =    -0.00000087    0.00000019    0.00000104
     atom   97 type  2   force =     0.00000179    0.00000187   -0.00000139
     atom   98 type  2   force =    -0.00000040    0.00000120    0.00000024
     atom   99 type  2   force =     0.00000108    0.00000114    0.00000212
     atom  100 type  2   force =    -0.00000017   -0.00000159   -0.00002991
     atom  101 type  2   force =     0.00000047    0.00000052   -0.00003091
     atom  102 type  2   force =     0.00000063   -0.00000046   -0.00003050
     atom  103 type  2   force =     0.00000007   -0.00000033   -0.00000887
     atom  104 type  2   force =     0.00000015   -0.00000200   -0.00001330
     atom  105 type  2   force =    -0.00000012    0.00000061   -0.00001111
     atom  106 type  1   force =     0.00000020    0.00000021   -0.00000552
     atom  107 type  1   force =    -0.00000075    0.00000029   -0.00001023
     atom  108 type  1   force =     0.00000070   -0.00000075   -0.00000386
     atom  109 type  1   force =    -0.00000014   -0.00000010   -0.00001049
     atom  110 type  1   force =    -0.00000006    0.00000002   -0.00001455
     atom  111 type  1   force =     0.00000091    0.00000110    0.00000105
     atom  112 type  2   force =    -0.00000022    0.00000134    0.00000043
     atom  113 type  2   force =     0.00000011   -0.00000036    0.00000048
     atom  114 type  2   force =     0.00000147    0.00000043    0.00000036
     atom  115 type  2   force =     0.00000001   -0.00000068   -0.00003106
     atom  116 type  2   force =    -0.00000079   -0.00000028   -0.00003046
     atom  117 type  2   force =    -0.00000132    0.00000100   -0.00002957
     atom  118 type  2   force =    -0.00000078    0.00000047   -0.00001264
     atom  119 type  2   force =     0.00000073    0.00000021   -0.00001087
     atom  120 type  2   force =     0.00000096    0.00000100   -0.00001234
     atom  121 type  1   force =     0.00000132   -0.00000011   -0.00000570
     atom  122 type  1   force =    -0.00000036    0.00000025   -0.00000971
     atom  123 type  1   force =     0.00000111    0.00000038   -0.00000276
     atom  124 type  1   force =     0.00000024   -0.00000053   -0.00001099
     atom  125 type  1   force =     0.00000010   -0.00000014   -0.00001450
     atom  126 type  1   force =     0.00000091   -0.00000109    0.00000023
     atom  127 type  2   force =    -0.00000133    0.00000064   -0.00000022
     atom  128 type  2   force =     0.00000251   -0.00000198    0.00000119
     atom  129 type  2   force =     0.00000340    0.00000134   -0.00000022
     atom  130 type  2   force =    -0.00000051   -0.00000053   -0.00003098
     atom  131 type  2   force =     0.00000086    0.00000121   -0.00002936
     atom  132 type  2   force =     0.00000046    0.00000052   -0.00003092
     atom  133 type  2   force =    -0.00000157    0.00000152   -0.00001383
     atom  134 type  2   force =     0.00000137    0.00000009   -0.00000940
     atom  135 type  2   force =     0.00000170    0.00000064   -0.00001029
     atom  136 type  3   force =    -0.00000061    0.00000371   -0.00004828
     atom  137 type  4   force =     0.00000165    0.00000198   -0.00002280
     atom  138 type  4   force =     0.00000190    0.00000154   -0.00002346
     atom  139 type  3   force =     0.00000209    0.00000173   -0.00004752
     atom  140 type  4   force =     0.00000094   -0.00000022   -0.00002191
     atom  141 type  4   force =     0.00000099   -0.00000023   -0.00002392
     atom  142 type  3   force =     0.00000213   -0.00000132   -0.00004739
     atom  143 type  4   force =    -0.00000034   -0.00000054   -0.00002162
     atom  144 type  4   force =    -0.00000043   -0.00000022   -0.00002495
     atom  145 type  3   force =     0.00000118   -0.00000118   -0.00004816
     atom  146 type  4   force =    -0.00000014   -0.00000003   -0.00002086
     atom  147 type  4   force =    -0.00000059   -0.00000010   -0.00002548
     atom  148 type  3   force =     0.00000182    0.00000332   -0.00004783
     atom  149 type  4   force =    -0.00000028    0.00000307   -0.00002347
     atom  150 type  4   force =    -0.00000121    0.00000269   -0.00002228
     atom  151 type  3   force =     0.00000041    0.00000455   -0.00004787
     atom  152 type  4   force =     0.00000079   -0.00000135   -0.00002438
     atom  153 type  4   force =     0.00000054   -0.00000144   -0.00002200
     atom  154 type  3   force =     0.00000341   -0.00000151   -0.00004731
     atom  155 type  4   force =     0.00000127   -0.00000076   -0.00002179
     atom  156 type  4   force =     0.00000118   -0.00000060   -0.00002440
     atom  157 type  3   force =     0.00000348   -0.00000091   -0.00004788
     atom  158 type  4   force =     0.00000156    0.00000085   -0.00002112
     atom  159 type  4   force =     0.00000140    0.00000074   -0.00002479
     atom  160 type  3   force =     0.00000147   -0.00000001   -0.00004739
     atom  161 type  4   force =    -0.00000036    0.00000082   -0.00002324
     atom  162 type  4   force =    -0.00000038    0.00000002   -0.00002156
     atom  163 type  3   force =    -0.00000082    0.00000195   -0.00004641
     atom  164 type  4   force =    -0.00000060   -0.00000110   -0.00002342
     atom  165 type  4   force =    -0.00000125   -0.00000071   -0.00002132
     atom  166 type  3   force =    -0.00000292   -0.00000218   -0.00004721
     atom  167 type  4   force =    -0.00000122   -0.00000151   -0.00002208
     atom  168 type  4   force =    -0.00000119   -0.00000130   -0.00002388
     atom  169 type  3   force =    -0.00000053   -0.00000129   -0.00004764
     atom  170 type  4   force =     0.00000033    0.00000077   -0.00002338
     atom  171 type  4   force =     0.00000050    0.00000049   -0.00002324
     atom  172 type  3   force =    -0.00000258   -0.00000049   -0.00004787
     atom  173 type  4   force =    -0.00000100   -0.00000061   -0.00002311
     atom  174 type  4   force =    -0.00000022   -0.00000123   -0.00002265
     atom  175 type  3   force =    -0.00000174   -0.00000080   -0.00004645
     atom  176 type  4   force =    -0.00000111   -0.00000099   -0.00002228
     atom  177 type  4   force =    -0.00000049   -0.00000052   -0.00002257
     atom  178 type  3   force =    -0.00000233   -0.00000377   -0.00004668
     atom  179 type  4   force =     0.00000031   -0.00000155   -0.00002168
     atom  180 type  4   force =     0.00000053   -0.00000057   -0.00002423
     atom  181 type  3   force =    -0.00000431   -0.00000169   -0.00004788
     atom  182 type  4   force =    -0.00000175    0.00000116   -0.00002163
     atom  183 type  4   force =    -0.00000154    0.00000154   -0.00002472

     DFT-D3 dispersion contribution to forces:
     atom    1 type  1   force =     0.00000000    0.00000005    0.00215186
     atom    2 type  1   force =     0.00001064   -0.00000512   -0.00008597
     atom    3 type  1   force =    -0.00000074   -0.00000039    0.00303077
     atom    4 type  1   force =    -0.00004820   -0.00002798   -0.00018337
     atom    5 type  1   force =     0.00000012    0.00000058   -0.00025979
     atom    6 type  1   force =    -0.00000001   -0.00000000    0.00406563
     atom    7 type  2   force =     0.00005070   -0.00000754    0.00153828
     atom    8 type  2   force =    -0.00001883    0.00004768    0.00153828
     atom    9 type  2   force =    -0.00003187   -0.00004014    0.00153828
     atom   10 type  2   force =     0.00000230   -0.00007680   -0.00036085
     atom   11 type  2   force =     0.00004331    0.00012428   -0.00039738
     atom   12 type  2   force =    -0.00010055   -0.00001495   -0.00030156
     atom   13 type  2   force =    -0.00016800   -0.00007414    0.00011429
     atom   14 type  2   force =     0.00014834   -0.00010876    0.00011713
     atom   15 type  2   force =     0.00001979    0.00018259    0.00011432
     atom   16 type  1   force =     0.00000043    0.00000214    0.00215972
     atom   17 type  1   force =     0.00002668    0.00001610   -0.00011587
     atom   18 type  1   force =    -0.00000016   -0.00000017    0.00303213
     atom   19 type  1   force =    -0.00003477    0.00002033   -0.00012022
     atom   20 type  1   force =    -0.00003257   -0.00001511   -0.00015511
     atom   21 type  1   force =    -0.00000014   -0.00000012    0.00406616
     atom   22 type  2   force =     0.00005078   -0.00000755    0.00153816
     atom   23 type  2   force =    -0.00001882    0.00004779    0.00153816
     atom   24 type  2   force =    -0.00003199   -0.00004028    0.00153820
     atom   25 type  2   force =     0.00001922   -0.00002380   -0.00031528
     atom   26 type  2   force =     0.00001739    0.00010274   -0.00030372
     atom   27 type  2   force =    -0.00007214   -0.00008875   -0.00036367
     atom   28 type  2   force =    -0.00016909   -0.00007315    0.00011612
     atom   29 type  2   force =     0.00014941   -0.00010947    0.00011727
     atom   30 type  2   force =     0.00002041    0.00018388    0.00011784
     atom   31 type  1   force =     0.00000291   -0.00000094    0.00215904
     atom   32 type  1   force =    -0.00000026    0.00001173   -0.00008662
     atom   33 type  1   force =     0.00000025   -0.00000006    0.00303211
     atom   34 type  1   force =     0.00000024   -0.00004052   -0.00012040
     atom   35 type  1   force =    -0.00002054   -0.00002048   -0.00015221
     atom   36 type  1   force =     0.00000001   -0.00000001    0.00406564
     atom   37 type  2   force =     0.00005079   -0.00000750    0.00153820
     atom   38 type  2   force =    -0.00001888    0.00004774    0.00153812
     atom   39 type  2   force =    -0.00003210   -0.00004017    0.00153820
     atom   40 type  2   force =     0.00006358   -0.00007964   -0.00030158
     atom   41 type  2   force =     0.00006567    0.00004068   -0.00036103
     atom   42 type  2   force =    -0.00012893   -0.00002497   -0.00039779
     atom   43 type  2   force =    -0.00016837   -0.00007396    0.00011877
     atom   44 type  2   force =     0.00014794   -0.00010987    0.00011591
     atom   45 type  2   force =     0.00002004    0.00018283    0.00011710
     atom   46 type  1   force =     0.00000161   -0.00000135    0.00215928
     atom   47 type  1   force =    -0.00001035   -0.00000571   -0.00008609
     atom   48 type  1   force =     0.00000071   -0.00000046    0.00303079
     atom   49 type  1   force =     0.00004846   -0.00002781   -0.00018327
     atom   50 type  1   force =     0.00000298    0.00003652   -0.00015593
     atom   51 type  1   force =    -0.00000001    0.00000002    0.00406563
     atom   52 type  2   force =     0.00005079   -0.00000760    0.00153816
     atom   53 type  2   force =    -0.00001888    0.00004784    0.00153820
     atom   54 type  2   force =    -0.00003193   -0.00004020    0.00153816
     atom   55 type  2   force =     0.00008573   -0.00009906   -0.00039782
     atom   56 type  2   force =     0.00003701    0.00009523   -0.00030120
     atom   57 type  2   force =    -0.00006807    0.00003672   -0.00036087
     atom   58 type  2   force =    -0.00016860   -0.00007456    0.00011945
     atom   59 type  2   force =     0.00014820   -0.00010838    0.00011441
     atom   60 type  2   force =     0.00002116    0.00018307    0.00011593
     atom   61 type  1   force =    -0.00000070    0.00000296    0.00215931
     atom   62 type  1   force =     0.00000028    0.00001393   -0.00006274
     atom   63 type  1   force =     0.00000003    0.00000088    0.00303099
     atom   64 type  1   force =    -0.00000021    0.00005673   -0.00018222
     atom   65 type  1   force =     0.00002691   -0.00000748   -0.00015182
     atom   66 type  1   force =    -0.00000001   -0.00000013    0.00406572
     atom   67 type  2   force =     0.00005084   -0.00000771    0.00153820
     atom   68 type  2   force =    -0.00001890    0.00004774    0.00153820
     atom   69 type  2   force =    -0.00003191   -0.00004022    0.00153812
     atom   70 type  2   force =     0.00002515   -0.00000083   -0.00041777
     atom   71 type  2   force =     0.00000886    0.00005552   -0.00031984
     atom   72 type  2   force =    -0.00003017   -0.00004316   -0.00032373
     atom   73 type  2   force =    -0.00016838   -0.00007404    0.00011720
     atom   74 type  2   force =     0.00014887   -0.00010875    0.00011977
     atom   75 type  2   force =     0.00002024    0.00018452    0.00011737
     atom   76 type  1   force =    -0.00000001   -0.00000010    0.00216411
     atom   77 type  1   force =     0.00001204   -0.00000775   -0.00006422
     atom   78 type  1   force =     0.00000075   -0.00000011    0.00303597
     atom   79 type  1   force =     0.00000875    0.00000674   -0.00011320
     atom   80 type  1   force =    -0.00000020   -0.00000139   -0.00004458
     atom   81 type  1   force =    -0.00000011    0.00000007    0.00406572
     atom   82 type  2   force =     0.00005101   -0.00000758    0.00153791
     atom   83 type  2   force =    -0.00001893    0.00004796    0.00153791
     atom   84 type  2   force =    -0.00003208   -0.00004037    0.00153791
     atom   85 type  2   force =     0.00004376   -0.00003574   -0.00032037
     atom   86 type  2   force =    -0.00002228    0.00004785   -0.00032429
     atom   87 type  2   force =    -0.00001325   -0.00002212   -0.00041819
     atom   88 type  2   force =    -0.00016920   -0.00007387    0.00012066
     atom   89 type  2   force =     0.00014965   -0.00010981    0.00011713
     atom   90 type  2   force =     0.00002066    0.00018338    0.00012058
     atom   91 type  1   force =    -0.00000220   -0.00000200    0.00215890
     atom   92 type  1   force =     0.00000088   -0.00003052   -0.00011647
     atom   93 type  1   force =    -0.00000044   -0.00000060    0.00303573
     atom   94 type  1   force =     0.00000188   -0.00001106   -0.00011434
     atom   95 type  1   force =    -0.00000645    0.00002830   -0.00015276
     atom   96 type  1   force =    -0.00000003    0.00000019    0.00406616
     atom   97 type  2   force =     0.00005079   -0.00000752    0.00153812
     atom   98 type  2   force =    -0.00001874    0.00004789    0.00153820
     atom   99 type  2   force =    -0.00003189   -0.00004023    0.00153820
     atom  100 type  2   force =     0.00008044   -0.00006610   -0.00030373
     atom  101 type  2   force =    -0.00004077    0.00010716   -0.00036375
     atom  102 type  2   force =    -0.00003019   -0.00000443   -0.00031569
     atom  103 type  2   force =    -0.00016990   -0.00007470    0.00011706
     atom  104 type  2   force =     0.00014903   -0.00010956    0.00011771
     atom  105 type  2   force =     0.00002017    0.00018282    0.00011859
     atom  106 type  1   force =    -0.00000000    0.00000002    0.00215926
     atom  107 type  1   force =    -0.00002748    0.00001461   -0.00011582
     atom  108 type  1   force =    -0.00000009    0.00000026    0.00303212
     atom  109 type  1   force =     0.00003456    0.00002084   -0.00012044
     atom  110 type  1   force =    -0.00000009    0.00000009   -0.00020440
     atom  111 type  1   force =     0.00000018   -0.00000006    0.00406616
     atom  112 type  2   force =     0.00005073   -0.00000758    0.00153840
     atom  113 type  2   force =    -0.00001881    0.00004773    0.00153840
     atom  114 type  2   force =    -0.00003193   -0.00004015    0.00153840
     atom  115 type  2   force =     0.00011298   -0.00001828   -0.00036381
     atom  116 type  2   force =     0.00001088    0.00002818   -0.00031525
     atom  117 type  2   force =    -0.00009786   -0.00003626   -0.00030342
     atom  118 type  2   force =    -0.00016949   -0.00007463    0.00011722
     atom  119 type  2   force =     0.00014820   -0.00010887    0.00011882
     atom  120 type  2   force =     0.00002009    0.00018414    0.00011726
     atom  121 type  1   force =    -0.00000201   -0.00000077    0.00215939
     atom  122 type  1   force =    -0.00001243   -0.00000714   -0.00006449
     atom  123 type  1   force =    -0.00000031    0.00000065    0.00303594
     atom  124 type  1   force =    -0.00001072    0.00000316   -0.00011321
     atom  125 type  1   force =     0.00002978   -0.00002156   -0.00015590
     atom  126 type  1   force =     0.00000012    0.00000005    0.00406572
     atom  127 type  2   force =     0.00005088   -0.00000756    0.00153820
     atom  128 type  2   force =    -0.00001885    0.00004775    0.00153816
     atom  129 type  2   force =    -0.00003198   -0.00004018    0.00153816
     atom  130 type  2   force =     0.00005276   -0.00000484   -0.00032452
     atom  131 type  2   force =    -0.00001199    0.00002238   -0.00041844
     atom  132 type  2   force =    -0.00005279   -0.00002096   -0.00032032
     atom  133 type  2   force =    -0.00016943   -0.00007430    0.00011778
     atom  134 type  2   force =     0.00014852   -0.00010964    0.00012042
     atom  135 type  2   force =     0.00001973    0.00018324    0.00011956
     atom  136 type  3   force =     0.00000030    0.00000058   -0.00231950
     atom  137 type  4   force =     0.00001119   -0.00003120   -0.00417335
     atom  138 type  4   force =    -0.00000083    0.00015972   -0.00066928
     atom  139 type  3   force =     0.00000387   -0.00005788   -0.00236504
     atom  140 type  4   force =    -0.00003860   -0.00006846   -0.00409277
     atom  141 type  4   force =     0.00014084    0.00022988   -0.00063856
     atom  142 type  3   force =    -0.00003341   -0.00001926   -0.00241627
     atom  143 type  4   force =    -0.00008891    0.00000594   -0.00411123
     atom  144 type  4   force =     0.00027208    0.00000697   -0.00065408
     atom  145 type  3   force =    -0.00004463    0.00003328   -0.00236968
     atom  146 type  4   force =    -0.00003271    0.00000531   -0.00417275
     atom  147 type  4   force =     0.00013731   -0.00007681   -0.00066934
     atom  148 type  3   force =    -0.00005366    0.00002657   -0.00236521
     atom  149 type  4   force =    -0.00002282    0.00000065   -0.00417947
     atom  150 type  4   force =    -0.00000502   -0.00001000   -0.00068763
     atom  151 type  3   force =    -0.00000774   -0.00005457   -0.00237004
     atom  152 type  4   force =     0.00003858   -0.00008131   -0.00411136
     atom  153 type  4   force =    -0.00014293    0.00023231   -0.00065443
     atom  154 type  3   force =     0.00000539   -0.00005817   -0.00240486
     atom  155 type  4   force =    -0.00000005   -0.00000014   -0.00399617
     atom  156 type  4   force =     0.00000015   -0.00000055   -0.00062092
     atom  157 type  3   force =    -0.00005213    0.00002265   -0.00240490
     atom  158 type  4   force =    -0.00004005    0.00006670   -0.00409171
     atom  159 type  4   force =     0.00012861   -0.00023703   -0.00063899
     atom  160 type  3   force =     0.00000048    0.00003924   -0.00241639
     atom  161 type  4   force =     0.00000035    0.00002536   -0.00416117
     atom  162 type  4   force =    -0.00000406   -0.00017027   -0.00073674
     atom  163 type  3   force =    -0.00000433   -0.00000601   -0.00243774
     atom  164 type  4   force =     0.00002376   -0.00001393   -0.00416195
     atom  165 type  4   force =    -0.00014753    0.00008930   -0.00073600
     atom  166 type  3   force =     0.00003258   -0.00002080   -0.00241625
     atom  167 type  4   force =     0.00007866    0.00000101   -0.00409237
     atom  168 type  4   force =    -0.00027015    0.00000684   -0.00063817
     atom  169 type  3   force =     0.00004670    0.00003187   -0.00240504
     atom  170 type  4   force =     0.00005020    0.00007326   -0.00411059
     atom  171 type  4   force =    -0.00012926   -0.00023993   -0.00065449
     atom  172 type  3   force =     0.00005251    0.00002230   -0.00237000
     atom  173 type  4   force =     0.00001040   -0.00002153   -0.00417939
     atom  174 type  4   force =     0.00001301    0.00000445   -0.00068754
     atom  175 type  3   force =     0.00000894    0.00000105   -0.00243783
     atom  176 type  4   force =    -0.00002386   -0.00001244   -0.00416221
     atom  177 type  4   force =     0.00015172    0.00008307   -0.00073586
     atom  178 type  3   force =    -0.00000410    0.00000703   -0.00243752
     atom  179 type  4   force =     0.00001192    0.00001854   -0.00418017
     atom  180 type  4   force =    -0.00000704    0.00000926   -0.00068719
     atom  181 type  3   force =     0.00004922    0.00003211   -0.00236473
     atom  182 type  4   force =     0.00002167    0.00002419   -0.00417273
     atom  183 type  4   force =    -0.00013663   -0.00007930   -0.00066958

     Total force =     0.928266     Total SCF correction =     0.000294

     DFT-D3 dispersion Force =     0.026757


     Computing stress (Cartesian axis) and pressure


     negative rho (up, down):  5.312E-03 5.312E-03
          total   stress  (Ry/bohr**3)                   (kbar)     P=       -2.65
   0.00002586  -0.00000003   0.00000001            3.80       -0.00        0.00
  -0.00000003   0.00002587   0.00000017           -0.00        3.80        0.02
   0.00000001   0.00000017  -0.00010582            0.00        0.02      -15.57

     kinetic stress (kbar)   4347.39     -0.00      0.00
                               -0.00   4347.39      0.03
                                0.00      0.03   4358.51

     local   stress (kbar)-796759.91     -0.00     -0.01
                               -0.00-796759.89     -0.44
                               -0.01     -0.44 793050.21

     nonloc. stress (kbar)   1593.29     -0.00     -0.00
                               -0.00   1593.29     -0.00
                               -0.00     -0.00   1577.69

     hartree stress (kbar) 397038.24      0.00      0.00
                                0.00 397038.24      0.10
                                0.00      0.10-395012.97

     exc-cor stress (kbar)   2049.57      0.00      0.00
                                0.00   2049.57      0.00
                                0.00      0.00   2046.82

     corecor stress (kbar)  -3113.85     -0.00     -0.00
                               -0.00  -3113.85     -0.00
                               -0.00     -0.00  -3111.46

     ewald   stress (kbar) 394857.14      0.00      0.01
                                0.00 394857.11      0.34
                                0.01      0.34-402918.34

     hubbard stress (kbar)      0.00      0.00      0.00
                                0.00      0.00      0.00
                                0.00      0.00      0.00

     DFT-D   stress (kbar)     -8.07     -0.00     -0.00
                               -0.00     -8.07     -0.00
                               -0.00     -0.00     -6.02

     XDM     stress (kbar)      0.00      0.00      0.00
                                0.00      0.00      0.00
                                0.00      0.00      0.00

     dft-nl  stress (kbar)      0.00      0.00      0.00
                                0.00      0.00      0.00
                                0.00      0.00      0.00

     TS-vdW  stress (kbar)      0.00      0.00      0.00
                                0.00      0.00      0.00
                                0.00      0.00      0.00

     MDB     stress (kbar)      0.00      0.00      0.00
                                0.00      0.00      0.00
                                0.00      0.00      0.00

     3D-RISM stress (kbar)      0.00      0.00      0.00
                                0.00      0.00      0.00
                                0.00      0.00      0.00


     Writing all to output data dir ./REDACTED_PATH :
     XML data file, charge density, pseudopotentials, collected wavefunctions

     init_run     :     33.32s CPU     34.72s WALL (       1 calls)
     electrons    :  19800.60s CPU  20130.94s WALL (       1 calls)
     forces       :     24.79s CPU     25.37s WALL (       1 calls)
     force_dftd3  :      1.47s CPU      1.53s WALL (       1 calls)
     stress       :     69.00s CPU     70.09s WALL (       1 calls)
     stres_dftd3  :      1.53s CPU      1.59s WALL (       1 calls)

     Called by init_run:
     wfcinit      :     22.89s CPU     23.56s WALL (       1 calls)
     wfcinit:atom :      0.09s CPU      0.16s WALL (       2 calls)
     wfcinit:wfcr :     21.91s CPU     22.33s WALL (       2 calls)
     potinit      :      1.50s CPU      1.90s WALL (       1 calls)
     hinit0       :      2.75s CPU      2.82s WALL (       1 calls)

     Called by electrons:
     c_bands      :  16560.74s CPU  16823.36s WALL (     371 calls)
     sum_band     :   2604.51s CPU   2646.78s WALL (     371 calls)
     v_of_rho     :    196.64s CPU    207.96s WALL (     371 calls)
     v_h          :      8.70s CPU      9.51s WALL (     371 calls)
     v_xc         :    188.90s CPU    199.48s WALL (     373 calls)
     newd         :    161.65s CPU    163.98s WALL (     371 calls)
     PAW_pot      :    115.31s CPU    116.40s WALL (     371 calls)
     mix_rho      :    107.26s CPU    114.19s WALL (     371 calls)
     energy_dftd3 :      0.10s CPU      0.10s WALL (       1 calls)

     Called by c_bands:
     init_us_2    :    346.55s CPU    350.94s WALL (    1490 calls)
     cegterg      :  15321.04s CPU  15574.94s WALL (     744 calls)

     Called by sum_band:
     sum_band:wei :      2.40s CPU      2.42s WALL (     371 calls)
     sum_band:loo :   2204.38s CPU   2226.90s WALL (     371 calls)
     sum_band:buf :     31.99s CPU     32.46s WALL (     742 calls)
     sum_band:ini :    172.00s CPU    174.13s WALL (     742 calls)
     sum_band:cal :   1437.72s CPU   1452.33s WALL (     742 calls)
     sum_band:bec :      7.32s CPU      7.40s WALL (     742 calls)
     addusdens    :    219.14s CPU    233.44s WALL (     371 calls)
                                        0.00s GPU  (     371 calls)
     addusd:skk   :     10.80s CPU     11.19s WALL (    1484 calls)
                                        0.00s GPU  (    1484 calls)

     Called by *egterg:
     cdiaghg      :    224.03s CPU    231.15s WALL (    1722 calls)
     cegterg:over :   1397.84s CPU   1413.06s WALL (     982 calls)
     cegterg:upda :    920.79s CPU    950.01s WALL (     982 calls)
     cegterg:last :   1298.76s CPU   1318.11s WALL (     912 calls)
     cdiaghg:chol :     18.91s CPU     19.02s WALL (    1722 calls)
     cdiaghg:inve :      0.97s CPU      0.98s WALL (    1722 calls)
     cdiaghg:para :     61.41s CPU     64.64s WALL (    3444 calls)
     h_psi        :   8032.42s CPU   8141.55s WALL (    1728 calls)
     s_psi        :   2828.64s CPU   2851.19s WALL (    1728 calls)
     g_psi        :     22.57s CPU     22.90s WALL (     982 calls)

     Called by h_psi:
     h_psi:calbec :   2957.32s CPU   2988.39s WALL (    1728 calls)
     vloc_psi     :   2210.34s CPU   2231.25s WALL (    1728 calls)
                                        0.00s GPU  (    1728 calls)
     add_vuspsi   :   2822.08s CPU   2845.59s WALL (    1728 calls)

     General routines
     calbec       :   4460.67s CPU   4507.07s WALL (    2504 calls)
     fft          :    156.12s CPU    171.50s WALL (    9315 calls)
     ffts         :      8.14s CPU      9.12s WALL (    1484 calls)
     fftw         :   2608.00s CPU   2632.72s WALL ( 2456556 calls)
     interpolate  :     12.24s CPU     13.66s WALL (     742 calls)

     Parallel routines

     PAW routines
     PAW_pot      :    115.31s CPU    116.40s WALL (     371 calls)

     PWSCF        :  19932.69s CPU  20268.11s WALL


   This run was terminated on:  22: 8:31  31Aug2026            

=------------------------------------------------------------------------------=
   JOB DONE.
=------------------------------------------------------------------------------=
Note: The following floating-point exceptions are signalling: IEEE_UNDERFLOW_FLAG IEEE_DENORMAL
Note: The following floating-point exceptions are signalling: IEEE_UNDERFLOW_FLAG IEEE_DENORMAL
Note: The following floating-point exceptions are signalling: IEEE_UNDERFLOW_FLAG IEEE_DENORMAL
Note: The following floating-point exceptions are signalling: IEEE_UNDERFLOW_FLAG IEEE_DENORMAL
Note: The following floating-point exceptions are signalling: IEEE_UNDERFLOW_FLAG IEEE_DENORMAL
Note: The following floating-point exceptions are signalling: IEEE_UNDERFLOW_FLAG IEEE_DENORMAL
Note: The following floating-point exceptions are signalling: IEEE_UNDERFLOW_FLAG IEEE_DENORMAL
Note: The following floating-point exceptions are signalling: IEEE_UNDERFLOW_FLAG IEEE_DENORMAL
Note: The following floating-point exceptions are signalling: IEEE_UNDERFLOW_FLAG IEEE_DENORMAL
Note: The following floating-point exceptions are signalling: IEEE_UNDERFLOW_FLAG IEEE_DENORMAL
Note: The following floating-point exceptions are signalling: IEEE_UNDERFLOW_FLAG IEEE_DENORMAL
Note: The following floating-point exceptions are signalling: IEEE_UNDERFLOW_FLAG IEEE_DENORMAL
Note: The following floating-point exceptions are signalling: IEEE_UNDERFLOW_FLAG IEEE_DENORMAL
Note: The following floating-point exceptions are signalling: IEEE_UNDERFLOW_FLAG IEEE_DENORMAL
Note: The following floating-point exceptions are signalling: IEEE_UNDERFLOW_FLAG IEEE_DENORMAL
Note: The following floating-point exceptions are signalling: IEEE_UNDERFLOW_FLAG IEEE_DENORMAL
Note: The following floating-point exceptions are signalling: IEEE_UNDERFLOW_FLAG IEEE_DENORMAL
Note: The following floating-point exceptions are signalling: IEEE_UNDERFLOW_FLAG IEEE_DENORMAL
Note: The following floating-point exceptions are signalling: IEEE_UNDERFLOW_FLAG IEEE_DENORMAL
Note: The following floating-point exceptions are signalling: IEEE_UNDERFLOW_FLAG IEEE_DENORMAL
Note: The following floating-point exceptions are signalling: IEEE_UNDERFLOW_FLAG IEEE_DENORMAL
Note: The following floating-point exceptions are signalling: IEEE_UNDERFLOW_FLAG IEEE_DENORMAL
Note: The following floating-point exceptions are signalling: IEEE_UNDERFLOW_FLAG IEEE_DENORMAL
Note: The following floating-point exceptions are signalling: IEEE_UNDERFLOW_FLAG IEEE_DENORMAL
Note: The following floating-point exceptions are signalling: IEEE_UNDERFLOW_FLAG IEEE_DENORMAL
Note: The following floating-point exceptions are signalling: IEEE_UNDERFLOW_FLAG IEEE_DENORMAL
Note: The following floating-point exceptions are signalling: IEEE_UNDERFLOW_FLAG IEEE_DENORMAL
Note: The following floating-point exceptions are signalling: IEEE_UNDERFLOW_FLAG IEEE_DENORMAL
Note: The following floating-point exceptions are signalling: IEEE_UNDERFLOW_FLAG IEEE_DENORMAL
Note: The following floating-point exceptions are signalling: IEEE_UNDERFLOW_FLAG IEEE_DENORMAL
Note: The following floating-point exceptions are signalling: IEEE_UNDERFLOW_FLAG IEEE_DENORMAL
Note: The following floating-point exceptions are signalling: IEEE_UNDERFLOW_FLAG IEEE_DENORMAL
Note: The following floating-point exceptions are signalling: IEEE_UNDERFLOW_FLAG IEEE_DENORMAL
Note: The following floating-point exceptions are signalling: IEEE_UNDERFLOW_FLAG IEEE_DENORMAL
Note: The following floating-point exceptions are signalling: IEEE_UNDERFLOW_FLAG IEEE_DENORMAL
Note: The following floating-point exceptions are signalling: IEEE_UNDERFLOW_FLAG IEEE_DENORMAL
Note: The following floating-point exceptions are signalling: IEEE_UNDERFLOW_FLAG IEEE_DENORMAL
Note: The following floating-point exceptions are signalling: IEEE_UNDERFLOW_FLAG IEEE_DENORMAL
Note: The following floating-point exceptions are signalling: IEEE_UNDERFLOW_FLAG IEEE_DENORMAL
Note: The following floating-point exceptions are signalling: IEEE_UNDERFLOW_FLAG IEEE_DENORMAL
Note: The following floating-point exceptions are signalling: IEEE_UNDERFLOW_FLAG IEEE_DENORMAL
Note: The following floating-point exceptions are signalling: IEEE_UNDERFLOW_FLAG IEEE_DENORMAL
Note: The following floating-point exceptions are signalling: IEEE_UNDERFLOW_FLAG IEEE_DENORMAL
Note: The following floating-point exceptions are signalling: IEEE_UNDERFLOW_FLAG IEEE_DENORMAL
Note: The following floating-point exceptions are signalling: IEEE_UNDERFLOW_FLAG IEEE_DENORMAL
Note: The following floating-point exceptions are signalling: IEEE_UNDERFLOW_FLAG IEEE_DENORMAL
Note: The following floating-point exceptions are signalling: IEEE_UNDERFLOW_FLAG IEEE_DENORMAL
Note: The following floating-point exceptions are signalling: IEEE_UNDERFLOW_FLAG IEEE_DENORMAL
Note: The following floating-point exceptions are signalling: IEEE_UNDERFLOW_FLAG IEEE_DENORMAL
Note: The following floating-point exceptions are signalling: IEEE_UNDERFLOW_FLAG IEEE_DENORMAL
Note: The following floating-point exceptions are signalling: IEEE_UNDERFLOW_FLAG IEEE_DENORMAL
Note: The following floating-point exceptions are signalling: IEEE_UNDERFLOW_FLAG IEEE_DENORMAL
Note: The following floating-point exceptions are signalling: IEEE_UNDERFLOW_FLAG IEEE_DENORMAL
Note: The following floating-point exceptions are signalling: IEEE_UNDERFLOW_FLAG IEEE_DENORMAL
Note: The following floating-point exceptions are signalling: IEEE_UNDERFLOW_FLAG IEEE_DENORMAL
Note: The following floating-point exceptions are signalling: IEEE_UNDERFLOW_FLAG IEEE_DENORMAL
Note: The following floating-point exceptions are signalling: IEEE_UNDERFLOW_FLAG IEEE_DENORMAL
Note: The following floating-point exceptions are signalling: IEEE_UNDERFLOW_FLAG IEEE_DENORMAL
Note: The following floating-point exceptions are signalling: IEEE_UNDERFLOW_FLAG IEEE_DENORMAL
Note: The following floating-point exceptions are signalling: IEEE_UNDERFLOW_FLAG IEEE_DENORMAL
Note: The following floating-point exceptions are signalling: IEEE_UNDERFLOW_FLAG IEEE_DENORMAL
Note: The following floating-point exceptions are signalling: IEEE_UNDERFLOW_FLAG IEEE_DENORMAL
Note: The following floating-point exceptions are signalling: IEEE_UNDERFLOW_FLAG IEEE_DENORMAL
Note: The following floating-point exceptions are signalling: IEEE_UNDERFLOW_FLAG IEEE_DENORMAL
Note: The following floating-point exceptions are signalling: IEEE_UNDERFLOW_FLAG IEEE_DENORMAL
Note: The following floating-point exceptions are signalling: IEEE_UNDERFLOW_FLAG IEEE_DENORMAL
Note: The following floating-point exceptions are signalling: IEEE_UNDERFLOW_FLAG IEEE_DENORMAL
Note: The following floating-point exceptions are signalling: IEEE_UNDERFLOW_FLAG IEEE_DENORMAL
Note: The following floating-point exceptions are signalling: IEEE_UNDERFLOW_FLAG IEEE_DENORMAL
Note: The following floating-point exceptions are signalling: IEEE_UNDERFLOW_FLAG IEEE_DENORMAL
Note: The following floating-point exceptions are signalling: IEEE_UNDERFLOW_FLAG IEEE_DENORMAL
Note: The following floating-point exceptions are signalling: IEEE_UNDERFLOW_FLAG IEEE_DENORMAL
Note: The following floating-point exceptions are signalling: IEEE_UNDERFLOW_FLAG IEEE_DENORMAL
Note: The following floating-point exceptions are signalling: IEEE_UNDERFLOW_FLAG IEEE_DENORMAL
Note: The following floating-point exceptions are signalling: IEEE_UNDERFLOW_FLAG IEEE_DENORMAL
Note: The following floating-point exceptions are signalling: IEEE_UNDERFLOW_FLAG IEEE_DENORMAL
Note: The following floating-point exceptions are signalling: IEEE_UNDERFLOW_FLAG IEEE_DENORMAL
Note: The following floating-point exceptions are signalling: IEEE_UNDERFLOW_FLAG IEEE_DENORMAL
Note: The following floating-point exceptions are signalling: IEEE_UNDERFLOW_FLAG IEEE_DENORMAL
Note: The following floating-point exceptions are signalling: IEEE_UNDERFLOW_FLAG IEEE_DENORMAL
Note: The following floating-point exceptions are signalling: IEEE_UNDERFLOW_FLAG IEEE_DENORMAL
Note: The following floating-point exceptions are signalling: IEEE_UNDERFLOW_FLAG IEEE_DENORMAL
Note: The following floating-point exceptions are signalling: IEEE_UNDERFLOW_FLAG IEEE_DENORMAL
Note: The following floating-point exceptions are signalling: IEEE_UNDERFLOW_FLAG IEEE_DENORMAL
Note: The following floating-point exceptions are signalling: IEEE_UNDERFLOW_FLAG IEEE_DENORMAL
Note: The following floating-point exceptions are signalling: IEEE_UNDERFLOW_FLAG IEEE_DENORMAL
Note: The following floating-point exceptions are signalling: IEEE_INVALID_FLAG IEEE_UNDERFLOW_FLAG IEEE_DENORMAL
Note: The following floating-point exceptions are signalling: IEEE_UNDERFLOW_FLAG IEEE_DENORMAL
Note: The following floating-point exceptions are signalling: IEEE_UNDERFLOW_FLAG IEEE_DENORMAL
Note: The following floating-point exceptions are signalling: IEEE_UNDERFLOW_FLAG IEEE_DENORMAL
Note: The following floating-point exceptions are signalling: IEEE_UNDERFLOW_FLAG IEEE_DENORMAL
Note: The following floating-point exceptions are signalling: IEEE_UNDERFLOW_FLAG IEEE_DENORMAL
Note: The following floating-point exceptions are signalling: IEEE_UNDERFLOW_FLAG IEEE_DENORMAL
Note: The following floating-point exceptions are signalling: IEEE_UNDERFLOW_FLAG IEEE_DENORMAL
Note: The following floating-point exceptions are signalling: IEEE_UNDERFLOW_FLAG IEEE_DENORMAL
Note: The following floating-point exceptions are signalling: IEEE_UNDERFLOW_FLAG IEEE_DENORMAL
Note: The following floating-point exceptions are signalling: IEEE_UNDERFLOW_FLAG IEEE_DENORMAL
Note: The following floating-point exceptions are signalling: IEEE_UNDERFLOW_FLAG IEEE_DENORMAL
Note: The following floating-point exceptions are signalling: IEEE_UNDERFLOW_FLAG IEEE_DENORMAL
Note: The following floating-point exceptions are signalling: IEEE_UNDERFLOW_FLAG IEEE_DENORMAL
Note: The following floating-point exceptions are signalling: IEEE_UNDERFLOW_FLAG IEEE_DENORMAL
Note: The following floating-point exceptions are signalling: IEEE_UNDERFLOW_FLAG IEEE_DENORMAL
Note: The following floating-point exceptions are signalling: IEEE_UNDERFLOW_FLAG IEEE_DENORMAL
Note: The following floating-point exceptions are signalling: IEEE_UNDERFLOW_FLAG IEEE_DENORMAL
Note: The following floating-point exceptions are signalling: IEEE_UNDERFLOW_FLAG IEEE_DENORMAL
Note: The following floating-point exceptions are signalling: IEEE_UNDERFLOW_FLAG IEEE_DENORMAL
Note: The following floating-point exceptions are signalling: IEEE_UNDERFLOW_FLAG IEEE_DENORMAL
Note: The following floating-point exceptions are signalling: IEEE_UNDERFLOW_FLAG IEEE_DENORMAL
Note: The following floating-point exceptions are signalling: IEEE_UNDERFLOW_FLAG IEEE_DENORMAL
Note: The following floating-point exceptions are signalling: IEEE_UNDERFLOW_FLAG IEEE_DENORMAL
Note: The following floating-point exceptions are signalling: IEEE_UNDERFLOW_FLAG IEEE_DENORMAL
Note: The following floating-point exceptions are signalling: IEEE_UNDERFLOW_FLAG IEEE_DENORMAL
Note: The following floating-point exceptions are signalling: IEEE_UNDERFLOW_FLAG IEEE_DENORMAL
Note: The following floating-point exceptions are signalling: IEEE_UNDERFLOW_FLAG IEEE_DENORMAL
Note: The following floating-point exceptions are signalling: IEEE_UNDERFLOW_FLAG IEEE_DENORMAL
Note: The following floating-point exceptions are signalling: IEEE_UNDERFLOW_FLAG IEEE_DENORMAL
Note: The following floating-point exceptions are signalling: IEEE_UNDERFLOW_FLAG IEEE_DENORMAL
Note: The following floating-point exceptions are signalling: IEEE_UNDERFLOW_FLAG IEEE_DENORMAL
Note: The following floating-point exceptions are signalling: IEEE_UNDERFLOW_FLAG IEEE_DENORMAL
Note: The following floating-point exceptions are signalling: IEEE_UNDERFLOW_FLAG IEEE_DENORMAL
Note: The following floating-point exceptions are signalling: IEEE_UNDERFLOW_FLAG IEEE_DENORMAL
Note: The following floating-point exceptions are signalling: IEEE_UNDERFLOW_FLAG IEEE_DENORMAL
Note: The following floating-point exceptions are signalling: IEEE_UNDERFLOW_FLAG IEEE_DENORMAL
Note: The following floating-point exceptions are signalling: IEEE_UNDERFLOW_FLAG IEEE_DENORMAL
Note: The following floating-point exceptions are signalling: IEEE_UNDERFLOW_FLAG IEEE_DENORMAL
Note: The following floating-point exceptions are signalling: IEEE_UNDERFLOW_FLAG IEEE_DENORMAL
Note: The following floating-point exceptions are signalling: IEEE_UNDERFLOW_FLAG IEEE_DENORMAL
Note: The following floating-point exceptions are signalling: IEEE_UNDERFLOW_FLAG IEEE_DENORMAL
Note: The following floating-point exceptions are signalling: IEEE_UNDERFLOW_FLAG IEEE_DENORMAL
Note: The following floating-point exceptions are signalling: IEEE_UNDERFLOW_FLAG IEEE_DENORMAL
Note: The following floating-point exceptions are signalling: IEEE_UNDERFLOW_FLAG IEEE_DENORMAL
Note: The following floating-point exceptions are signalling: IEEE_UNDERFLOW_FLAG IEEE_DENORMAL
Note: The following floating-point exceptions are signalling: IEEE_UNDERFLOW_FLAG IEEE_DENORMAL
Note: The following floating-point exceptions are signalling: IEEE_UNDERFLOW_FLAG IEEE_DENORMAL
Note: The following floating-point exceptions are signalling: IEEE_UNDERFLOW_FLAG IEEE_DENORMAL
Note: The following floating-point exceptions are signalling: IEEE_UNDERFLOW_FLAG IEEE_DENORMAL
Note: The following floating-point exceptions are signalling: IEEE_UNDERFLOW_FLAG IEEE_DENORMAL
Note: The following floating-point exceptions are signalling: IEEE_UNDERFLOW_FLAG IEEE_DENORMAL
Note: The following floating-point exceptions are signalling: IEEE_UNDERFLOW_FLAG IEEE_DENORMAL
Note: The following floating-point exceptions are signalling: IEEE_UNDERFLOW_FLAG IEEE_DENORMAL
Note: The following floating-point exceptions are signalling: IEEE_UNDERFLOW_FLAG IEEE_DENORMAL
Note: The following floating-point exceptions are signalling: IEEE_UNDERFLOW_FLAG IEEE_DENORMAL
Note: The following floating-point exceptions are signalling: IEEE_UNDERFLOW_FLAG IEEE_DENORMAL
Note: The following floating-point exceptions are signalling: IEEE_UNDERFLOW_FLAG IEEE_DENORMAL
Note: The following floating-point exceptions are signalling: IEEE_UNDERFLOW_FLAG IEEE_DENORMAL
Note: The following floating-point exceptions are signalling: IEEE_UNDERFLOW_FLAG IEEE_DENORMAL
Note: The following floating-point exceptions are signalling: IEEE_UNDERFLOW_FLAG IEEE_DENORMAL
Note: The following floating-point exceptions are signalling: IEEE_UNDERFLOW_FLAG IEEE_DENORMAL
Note: The following floating-point exceptions are signalling: IEEE_UNDERFLOW_FLAG IEEE_DENORMAL
Note: The following floating-point exceptions are signalling: IEEE_UNDERFLOW_FLAG IEEE_DENORMAL
Note: The following floating-point exceptions are signalling: IEEE_UNDERFLOW_FLAG IEEE_DENORMAL
Note: The following floating-point exceptions are signalling: IEEE_UNDERFLOW_FLAG IEEE_DENORMAL
Note: The following floating-point exceptions are signalling: IEEE_UNDERFLOW_FLAG IEEE_DENORMAL
Note: The following floating-point exceptions are signalling: IEEE_UNDERFLOW_FLAG IEEE_DENORMAL
Note: The following floating-point exceptions are signalling: IEEE_UNDERFLOW_FLAG IEEE_DENORMAL
Note: The following floating-point exceptions are signalling: IEEE_UNDERFLOW_FLAG IEEE_DENORMAL
Note: The following floating-point exceptions are signalling: IEEE_UNDERFLOW_FLAG IEEE_DENORMAL
Note: The following floating-point exceptions are signalling: IEEE_UNDERFLOW_FLAG IEEE_DENORMAL
Note: The following floating-point exceptions are signalling: IEEE_UNDERFLOW_FLAG IEEE_DENORMAL
Note: The following floating-point exceptions are signalling: IEEE_UNDERFLOW_FLAG IEEE_DENORMAL
Note: The following floating-point exceptions are signalling: IEEE_UNDERFLOW_FLAG IEEE_DENORMAL
Note: The following floating-point exceptions are signalling: IEEE_UNDERFLOW_FLAG IEEE_DENORMAL
Note: The following floating-point exceptions are signalling: IEEE_UNDERFLOW_FLAG IEEE_DENORMAL
Note: The following floating-point exceptions are signalling: IEEE_UNDERFLOW_FLAG IEEE_DENORMAL
Note: The following floating-point exceptions are signalling: IEEE_UNDERFLOW_FLAG IEEE_DENORMAL
Note: The following floating-point exceptions are signalling: IEEE_UNDERFLOW_FLAG IEEE_DENORMAL
Note: The following floating-point exceptions are signalling: IEEE_UNDERFLOW_FLAG IEEE_DENORMAL
Note: The following floating-point exceptions are signalling: IEEE_UNDERFLOW_FLAG IEEE_DENORMAL
Note: The following floating-point exceptions are signalling: IEEE_UNDERFLOW_FLAG IEEE_DENORMAL
Note: The following floating-point exceptions are signalling: IEEE_UNDERFLOW_FLAG IEEE_DENORMAL
Note: The following floating-point exceptions are signalling: IEEE_UNDERFLOW_FLAG IEEE_DENORMAL
Note: The following floating-point exceptions are signalling: IEEE_UNDERFLOW_FLAG IEEE_DENORMAL
Note: The following floating-point exceptions are signalling: IEEE_UNDERFLOW_FLAG IEEE_DENORMAL
Note: The following floating-point exceptions are signalling: IEEE_UNDERFLOW_FLAG IEEE_DENORMAL
Note: The following floating-point exceptions are signalling: IEEE_UNDERFLOW_FLAG IEEE_DENORMAL
Note: The following floating-point exceptions are signalling: IEEE_UNDERFLOW_FLAG IEEE_DENORMAL
Note: The following floating-point exceptions are signalling: IEEE_UNDERFLOW_FLAG IEEE_DENORMAL
Note: The following floating-point exceptions are signalling: IEEE_UNDERFLOW_FLAG IEEE_DENORMAL
Note: The following floating-point exceptions are signalling: IEEE_UNDERFLOW_FLAG IEEE_DENORMAL
Note: The following floating-point exceptions are signalling: IEEE_UNDERFLOW_FLAG IEEE_DENORMAL
Note: The following floating-point exceptions are signalling: IEEE_UNDERFLOW_FLAG IEEE_DENORMAL
Note: The following floating-point exceptions are signalling: IEEE_UNDERFLOW_FLAG IEEE_DENORMAL
Note: The following floating-point exceptions are signalling: IEEE_UNDERFLOW_FLAG IEEE_DENORMAL
Note: The following floating-point exceptions are signalling: IEEE_UNDERFLOW_FLAG IEEE_DENORMAL
Note: The following floating-point exceptions are signalling: IEEE_UNDERFLOW_FLAG IEEE_DENORMAL
Note: The following floating-point exceptions are signalling: IEEE_UNDERFLOW_FLAG IEEE_DENORMAL
Note: The following floating-point exceptions are signalling: IEEE_UNDERFLOW_FLAG IEEE_DENORMAL
Note: The following floating-point exceptions are signalling: IEEE_UNDERFLOW_FLAG IEEE_DENORMAL
Note: The following floating-point exceptions are signalling: IEEE_UNDERFLOW_FLAG IEEE_DENORMAL
Note: The following floating-point exceptions are signalling: IEEE_UNDERFLOW_FLAG IEEE_DENORMAL
Note: The following floating-point exceptions are signalling: IEEE_UNDERFLOW_FLAG IEEE_DENORMAL
Note: The following floating-point exceptions are signalling: IEEE_UNDERFLOW_FLAG IEEE_DENORMAL
Note: The following floating-point exceptions are signalling: IEEE_UNDERFLOW_FLAG IEEE_DENORMAL
Note: The following floating-point exceptions are signalling: IEEE_UNDERFLOW_FLAG IEEE_DENORMAL
Note: The following floating-point exceptions are signalling: IEEE_UNDERFLOW_FLAG IEEE_DENORMAL
Note: The following floating-point exceptions are signalling: IEEE_UNDERFLOW_FLAG IEEE_DENORMAL
Note: The following floating-point exceptions are signalling: IEEE_UNDERFLOW_FLAG IEEE_DENORMAL
Note: The following floating-point exceptions are signalling: IEEE_UNDERFLOW_FLAG IEEE_DENORMAL
Note: The following floating-point exceptions are signalling: IEEE_UNDERFLOW_FLAG IEEE_DENORMAL
Note: The following floating-point exceptions are signalling: IEEE_UNDERFLOW_FLAG IEEE_DENORMAL
Note: The following floating-point exceptions are signalling: IEEE_UNDERFLOW_FLAG IEEE_DENORMAL
Note: The following floating-point exceptions are signalling: IEEE_UNDERFLOW_FLAG IEEE_DENORMAL
Note: The following floating-point exceptions are signalling: IEEE_UNDERFLOW_FLAG IEEE_DENORMAL
Note: The following floating-point exceptions are signalling: IEEE_UNDERFLOW_FLAG IEEE_DENORMAL
Note: The following floating-point exceptions are signalling: IEEE_UNDERFLOW_FLAG IEEE_DENORMAL
Note: The following floating-point exceptions are signalling: IEEE_UNDERFLOW_FLAG IEEE_DENORMAL
Note: The following floating-point exceptions are signalling: IEEE_UNDERFLOW_FLAG IEEE_DENORMAL
Note: The following floating-point exceptions are signalling: IEEE_UNDERFLOW_FLAG IEEE_DENORMAL
Note: The following floating-point exceptions are signalling: IEEE_UNDERFLOW_FLAG IEEE_DENORMAL
Note: The following floating-point exceptions are signalling: IEEE_UNDERFLOW_FLAG IEEE_DENORMAL
Note: The following floating-point exceptions are signalling: IEEE_UNDERFLOW_FLAG IEEE_DENORMAL
Note: The following floating-point exceptions are signalling: IEEE_UNDERFLOW_FLAG IEEE_DENORMAL
Note: The following floating-point exceptions are signalling: IEEE_UNDERFLOW_FLAG IEEE_DENORMAL
Note: The following floating-point exceptions are signalling: IEEE_UNDERFLOW_FLAG IEEE_DENORMAL
Note: The following floating-point exceptions are signalling: IEEE_UNDERFLOW_FLAG IEEE_DENORMAL
Note: The following floating-point exceptions are signalling: IEEE_UNDERFLOW_FLAG IEEE_DENORMAL
Note: The following floating-point exceptions are signalling: IEEE_UNDERFLOW_FLAG IEEE_DENORMAL
Note: The following floating-point exceptions are signalling: IEEE_UNDERFLOW_FLAG IEEE_DENORMAL
Note: The following floating-point exceptions are signalling: IEEE_UNDERFLOW_FLAG IEEE_DENORMAL
Note: The following floating-point exceptions are signalling: IEEE_UNDERFLOW_FLAG IEEE_DENORMAL
Note: The following floating-point exceptions are signalling: IEEE_UNDERFLOW_FLAG IEEE_DENORMAL
Note: The following floating-point exceptions are signalling: IEEE_UNDERFLOW_FLAG IEEE_DENORMAL
Note: The following floating-point exceptions are signalling: IEEE_UNDERFLOW_FLAG IEEE_DENORMAL
Note: The following floating-point exceptions are signalling: IEEE_UNDERFLOW_FLAG IEEE_DENORMAL
Note: The following floating-point exceptions are signalling: IEEE_UNDERFLOW_FLAG IEEE_DENORMAL
Note: The following floating-point exceptions are signalling: IEEE_UNDERFLOW_FLAG IEEE_DENORMAL
Note: The following floating-point exceptions are signalling: IEEE_UNDERFLOW_FLAG IEEE_DENORMAL
Note: The following floating-point exceptions are signalling: IEEE_UNDERFLOW_FLAG IEEE_DENORMAL
Note: The following floating-point exceptions are signalling: IEEE_UNDERFLOW_FLAG IEEE_DENORMAL
Note: The following floating-point exceptions are signalling: IEEE_UNDERFLOW_FLAG IEEE_DENORMAL
Note: The following floating-point exceptions are signalling: IEEE_UNDERFLOW_FLAG IEEE_DENORMAL
Note: The following floating-point exceptions are signalling: IEEE_UNDERFLOW_FLAG IEEE_DENORMAL
Note: The following floating-point exceptions are signalling: IEEE_UNDERFLOW_FLAG IEEE_DENORMAL
Note: The following floating-point exceptions are signalling: IEEE_UNDERFLOW_FLAG IEEE_DENORMAL
Note: The following floating-point exceptions are signalling: IEEE_UNDERFLOW_FLAG IEEE_DENORMAL
Note: The following floating-point exceptions are signalling: IEEE_UNDERFLOW_FLAG IEEE_DENORMAL
Note: The following floating-point exceptions are signalling: IEEE_UNDERFLOW_FLAG IEEE_DENORMAL
Note: The following floating-point exceptions are signalling: IEEE_UNDERFLOW_FLAG IEEE_DENORMAL
Note: The following floating-point exceptions are signalling: IEEE_UNDERFLOW_FLAG IEEE_DENORMAL
Note: The following floating-point exceptions are signalling: IEEE_UNDERFLOW_FLAG IEEE_DENORMAL
Note: The following floating-point exceptions are signalling: IEEE_UNDERFLOW_FLAG IEEE_DENORMAL
Note: The following floating-point exceptions are signalling: IEEE_UNDERFLOW_FLAG IEEE_DENORMAL
Note: The following floating-point exceptions are signalling: IEEE_UNDERFLOW_FLAG IEEE_DENORMAL
Note: The following floating-point exceptions are signalling: IEEE_UNDERFLOW_FLAG IEEE_DENORMAL
Note: The following floating-point exceptions are signalling: IEEE_UNDERFLOW_FLAG IEEE_DENORMAL
Note: The following floating-point exceptions are signalling: IEEE_UNDERFLOW_FLAG IEEE_DENORMAL
Note: The following floating-point exceptions are signalling: IEEE_UNDERFLOW_FLAG IEEE_DENORMAL
Note: The following floating-point exceptions are signalling: IEEE_UNDERFLOW_FLAG IEEE_DENORMAL
Note: The following floating-point exceptions are signalling: IEEE_UNDERFLOW_FLAG IEEE_DENORMAL
Note: The following floating-point exceptions are signalling: IEEE_UNDERFLOW_FLAG IEEE_DENORMAL
Note: The following floating-point exceptions are signalling: IEEE_UNDERFLOW_FLAG IEEE_DENORMAL
Note: The following floating-point exceptions are signalling: IEEE_UNDERFLOW_FLAG IEEE_DENORMAL
Note: The following floating-point exceptions are signalling: IEEE_UNDERFLOW_FLAG IEEE_DENORMAL
Note: The following floating-point exceptions are signalling: IEEE_UNDERFLOW_FLAG IEEE_DENORMAL
Note: The following floating-point exceptions are signalling: IEEE_UNDERFLOW_FLAG IEEE_DENORMAL
Note: The following floating-point exceptions are signalling: IEEE_UNDERFLOW_FLAG IEEE_DENORMAL
Note: The following floating-point exceptions are signalling: IEEE_UNDERFLOW_FLAG IEEE_DENORMAL
Note: The following floating-point exceptions are signalling: IEEE_UNDERFLOW_FLAG IEEE_DENORMAL
Note: The following floating-point exceptions are signalling: IEEE_UNDERFLOW_FLAG IEEE_DENORMAL
Note: The following floating-point exceptions are signalling: IEEE_UNDERFLOW_FLAG IEEE_DENORMAL
Note: The following floating-point exceptions are signalling: IEEE_UNDERFLOW_FLAG IEEE_DENORMAL
Note: The following floating-point exceptions are signalling: IEEE_UNDERFLOW_FLAG IEEE_DENORMAL
Note: The following floating-point exceptions are signalling: IEEE_UNDERFLOW_FLAG IEEE_DENORMAL
Note: The following floating-point exceptions are signalling: IEEE_UNDERFLOW_FLAG IEEE_DENORMAL
Note: The following floating-point exceptions are signalling: IEEE_UNDERFLOW_FLAG IEEE_DENORMAL
Note: The following floating-point exceptions are signalling: IEEE_UNDERFLOW_FLAG IEEE_DENORMAL
Note: The following floating-point exceptions are signalling: IEEE_UNDERFLOW_FLAG IEEE_DENORMAL
Note: The following floating-point exceptions are signalling: IEEE_UNDERFLOW_FLAG IEEE_DENORMAL
Note: The following floating-point exceptions are signalling: IEEE_UNDERFLOW_FLAG IEEE_DENORMAL
Note: The following floating-point exceptions are signalling: IEEE_UNDERFLOW_FLAG IEEE_DENORMAL
Note: The following floating-point exceptions are signalling: IEEE_UNDERFLOW_FLAG IEEE_DENORMAL
Note: The following floating-point exceptions are signalling: IEEE_UNDERFLOW_FLAG IEEE_DENORMAL
Note: The following floating-point exceptions are signalling: IEEE_UNDERFLOW_FLAG IEEE_DENORMAL
Note: The following floating-point exceptions are signalling: IEEE_UNDERFLOW_FLAG IEEE_DENORMAL
Note: The following floating-point exceptions are signalling: IEEE_UNDERFLOW_FLAG IEEE_DENORMAL
Note: The following floating-point exceptions are signalling: IEEE_UNDERFLOW_FLAG IEEE_DENORMAL
Note: The following floating-point exceptions are signalling: IEEE_UNDERFLOW_FLAG IEEE_DENORMAL
Note: The following floating-point exceptions are signalling: IEEE_UNDERFLOW_FLAG IEEE_DENORMAL
Note: The following floating-point exceptions are signalling: IEEE_UNDERFLOW_FLAG IEEE_DENORMAL
Note: The following floating-point exceptions are signalling: IEEE_UNDERFLOW_FLAG IEEE_DENORMAL
Note: The following floating-point exceptions are signalling: IEEE_UNDERFLOW_FLAG IEEE_DENORMAL
Note: The following floating-point exceptions are signalling: IEEE_UNDERFLOW_FLAG IEEE_DENORMAL
Note: The following floating-point exceptions are signalling: IEEE_UNDERFLOW_FLAG IEEE_DENORMAL
Note: The following floating-point exceptions are signalling: IEEE_UNDERFLOW_FLAG IEEE_DENORMAL
Note: The following floating-point exceptions are signalling: IEEE_UNDERFLOW_FLAG IEEE_DENORMAL
Note: The following floating-point exceptions are signalling: IEEE_UNDERFLOW_FLAG IEEE_DENORMAL
Note: The following floating-point exceptions are signalling: IEEE_UNDERFLOW_FLAG IEEE_DENORMAL
Note: The following floating-point exceptions are signalling: IEEE_UNDERFLOW_FLAG IEEE_DENORMAL
Note: The following floating-point exceptions are signalling: IEEE_UNDERFLOW_FLAG IEEE_DENORMAL
Note: The following floating-point exceptions are signalling: IEEE_UNDERFLOW_FLAG IEEE_DENORMAL
Note: The following floating-point exceptions are signalling: IEEE_UNDERFLOW_FLAG IEEE_DENORMAL
Note: The following floating-point exceptions are signalling: IEEE_UNDERFLOW_FLAG IEEE_DENORMAL
Note: The following floating-point exceptions are signalling: IEEE_UNDERFLOW_FLAG IEEE_DENORMAL
Note: The following floating-point exceptions are signalling: IEEE_UNDERFLOW_FLAG IEEE_DENORMAL
Note: The following floating-point exceptions are signalling: IEEE_UNDERFLOW_FLAG IEEE_DENORMAL
Note: The following floating-point exceptions are signalling: IEEE_UNDERFLOW_FLAG IEEE_DENORMAL
Note: The following floating-point exceptions are signalling: IEEE_UNDERFLOW_FLAG IEEE_DENORMAL
Note: The following floating-point exceptions are signalling: IEEE_UNDERFLOW_FLAG IEEE_DENORMAL
Note: The following floating-point exceptions are signalling: IEEE_UNDERFLOW_FLAG IEEE_DENORMAL
Note: The following floating-point exceptions are signalling: IEEE_UNDERFLOW_FLAG IEEE_DENORMAL
Note: The following floating-point exceptions are signalling: IEEE_UNDERFLOW_FLAG IEEE_DENORMAL
Note: The following floating-point exceptions are signalling: IEEE_UNDERFLOW_FLAG IEEE_DENORMAL
Note: The following floating-point exceptions are signalling: IEEE_UNDERFLOW_FLAG IEEE_DENORMAL
Note: The following floating-point exceptions are signalling: IEEE_UNDERFLOW_FLAG IEEE_DENORMAL
Note: The following floating-point exceptions are signalling: IEEE_UNDERFLOW_FLAG IEEE_DENORMAL
Note: The following floating-point exceptions are signalling: IEEE_UNDERFLOW_FLAG IEEE_DENORMAL
Note: The following floating-point exceptions are signalling: IEEE_UNDERFLOW_FLAG IEEE_DENORMAL
Note: The following floating-point exceptions are signalling: IEEE_UNDERFLOW_FLAG IEEE_DENORMAL
Note: The following floating-point exceptions are signalling: IEEE_UNDERFLOW_FLAG IEEE_DENORMAL
Note: The following floating-point exceptions are signalling: IEEE_UNDERFLOW_FLAG IEEE_DENORMAL
Note: The following floating-point exceptions are signalling: IEEE_UNDERFLOW_FLAG IEEE_DENORMAL
Note: The following floating-point exceptions are signalling: IEEE_UNDERFLOW_FLAG IEEE_DENORMAL
Note: The following floating-point exceptions are signalling: IEEE_UNDERFLOW_FLAG IEEE_DENORMAL
Note: The following floating-point exceptions are signalling: IEEE_UNDERFLOW_FLAG IEEE_DENORMAL
Note: The following floating-point exceptions are signalling: IEEE_UNDERFLOW_FLAG IEEE_DENORMAL
Note: The following floating-point exceptions are signalling: IEEE_UNDERFLOW_FLAG IEEE_DENORMAL
Note: The following floating-point exceptions are signalling: IEEE_UNDERFLOW_FLAG IEEE_DENORMAL
Note: The following floating-point exceptions are signalling: IEEE_UNDERFLOW_FLAG IEEE_DENORMAL
Note: The following floating-point exceptions are signalling: IEEE_UNDERFLOW_FLAG IEEE_DENORMAL
Note: The following floating-point exceptions are signalling: IEEE_UNDERFLOW_FLAG IEEE_DENORMAL
Note: The following floating-point exceptions are signalling: IEEE_UNDERFLOW_FLAG IEEE_DENORMAL
Note: The following floating-point exceptions are signalling: IEEE_UNDERFLOW_FLAG IEEE_DENORMAL
Note: The following floating-point exceptions are signalling: IEEE_UNDERFLOW_FLAG IEEE_DENORMAL
Note: The following floating-point exceptions are signalling: IEEE_UNDERFLOW_FLAG IEEE_DENORMAL
Note: The following floating-point exceptions are signalling: IEEE_UNDERFLOW_FLAG IEEE_DENORMAL
Note: The following floating-point exceptions are signalling: IEEE_UNDERFLOW_FLAG IEEE_DENORMAL
Note: The following floating-point exceptions are signalling: IEEE_UNDERFLOW_FLAG IEEE_DENORMAL
Note: The following floating-point exceptions are signalling: IEEE_UNDERFLOW_FLAG IEEE_DENORMAL
Note: The following floating-point exceptions are signalling: IEEE_UNDERFLOW_FLAG IEEE_DENORMAL
Note: The following floating-point exceptions are signalling: IEEE_UNDERFLOW_FLAG IEEE_DENORMAL
Note: The following floating-point exceptions are signalling: IEEE_UNDERFLOW_FLAG IEEE_DENORMAL
Note: The following floating-point exceptions are signalling: IEEE_UNDERFLOW_FLAG IEEE_DENORMAL
Note: The following floating-point exceptions are signalling: IEEE_UNDERFLOW_FLAG IEEE_DENORMAL
Note: The following floating-point exceptions are signalling: IEEE_UNDERFLOW_FLAG IEEE_DENORMAL
Note: The following floating-point exceptions are signalling: IEEE_UNDERFLOW_FLAG IEEE_DENORMAL
Note: The following floating-point exceptions are signalling: IEEE_UNDERFLOW_FLAG IEEE_DENORMAL
Note: The following floating-point exceptions are signalling: IEEE_UNDERFLOW_FLAG IEEE_DENORMAL
Note: The following floating-point exceptions are signalling: IEEE_UNDERFLOW_FLAG IEEE_DENORMAL
Note: The following floating-point exceptions are signalling: IEEE_UNDERFLOW_FLAG IEEE_DENORMAL
Note: The following floating-point exceptions are signalling: IEEE_UNDERFLOW_FLAG IEEE_DENORMAL
Note: The following floating-point exceptions are signalling: IEEE_UNDERFLOW_FLAG IEEE_DENORMAL
Note: The following floating-point exceptions are signalling: IEEE_UNDERFLOW_FLAG IEEE_DENORMAL
Note: The following floating-point exceptions are signalling: IEEE_UNDERFLOW_FLAG IEEE_DENORMAL
Note: The following floating-point exceptions are signalling: IEEE_UNDERFLOW_FLAG IEEE_DENORMAL
Note: The following floating-point exceptions are signalling: IEEE_UNDERFLOW_FLAG IEEE_DENORMAL
Note: The following floating-point exceptions are signalling: IEEE_UNDERFLOW_FLAG IEEE_DENORMAL
Note: The following floating-point exceptions are signalling: IEEE_UNDERFLOW_FLAG IEEE_DENORMAL
Note: The following floating-point exceptions are signalling: IEEE_UNDERFLOW_FLAG IEEE_DENORMAL
Note: The following floating-point exceptions are signalling: IEEE_UNDERFLOW_FLAG IEEE_DENORMAL
Note: The following floating-point exceptions are signalling: IEEE_UNDERFLOW_FLAG IEEE_DENORMAL
Note: The following floating-point exceptions are signalling: IEEE_UNDERFLOW_FLAG IEEE_DENORMAL
Note: The following floating-point exceptions are signalling: IEEE_UNDERFLOW_FLAG IEEE_DENORMAL
Note: The following floating-point exceptions are signalling: IEEE_UNDERFLOW_FLAG IEEE_DENORMAL
Note: The following floating-point exceptions are signalling: IEEE_UNDERFLOW_FLAG IEEE_DENORMAL
Note: The following floating-point exceptions are signalling: IEEE_UNDERFLOW_FLAG IEEE_DENORMAL
Note: The following floating-point exceptions are signalling: IEEE_UNDERFLOW_FLAG IEEE_DENORMAL
Note: The following floating-point exceptions are signalling: IEEE_UNDERFLOW_FLAG IEEE_DENORMAL
Note: The following floating-point exceptions are signalling: IEEE_UNDERFLOW_FLAG IEEE_DENORMAL
Note: The following floating-point exceptions are signalling: IEEE_UNDERFLOW_FLAG IEEE_DENORMAL
Note: The following floating-point exceptions are signalling: IEEE_UNDERFLOW_FLAG IEEE_DENORMAL
Note: The following floating-point exceptions are signalling: IEEE_UNDERFLOW_FLAG IEEE_DENORMAL
Note: The following floating-point exceptions are signalling: IEEE_UNDERFLOW_FLAG IEEE_DENORMAL
Note: The following floating-point exceptions are signalling: IEEE_UNDERFLOW_FLAG IEEE_DENORMAL
Note: The following floating-point exceptions are signalling: IEEE_UNDERFLOW_FLAG IEEE_DENORMAL
Note: The following floating-point exceptions are signalling: IEEE_UNDERFLOW_FLAG IEEE_DENORMAL
Note: The following floating-point exceptions are signalling: IEEE_UNDERFLOW_FLAG IEEE_DENORMAL
Note: The following floating-point exceptions are signalling: IEEE_UNDERFLOW_FLAG IEEE_DENORMAL
Note: The following floating-point exceptions are signalling: IEEE_UNDERFLOW_FLAG IEEE_DENORMAL
Note: The following floating-point exceptions are signalling: IEEE_UNDERFLOW_FLAG IEEE_DENORMAL
Note: The following floating-point exceptions are signalling: IEEE_UNDERFLOW_FLAG IEEE_DENORMAL
Note: The following floating-point exceptions are signalling: IEEE_UNDERFLOW_FLAG IEEE_DENORMAL
Note: The following floating-point exceptions are signalling: IEEE_UNDERFLOW_FLAG IEEE_DENORMAL
Note: The following floating-point exceptions are signalling: IEEE_UNDERFLOW_FLAG IEEE_DENORMAL
Note: The following floating-point exceptions are signalling: IEEE_UNDERFLOW_FLAG IEEE_DENORMAL
Note: The following floating-point exceptions are signalling: IEEE_UNDERFLOW_FLAG IEEE_DENORMAL
Note: The following floating-point exceptions are signalling: IEEE_UNDERFLOW_FLAG IEEE_DENORMAL
Note: The following floating-point exceptions are signalling: IEEE_UNDERFLOW_FLAG IEEE_DENORMAL
Note: The following floating-point exceptions are signalling: IEEE_UNDERFLOW_FLAG IEEE_DENORMAL
Note: The following floating-point exceptions are signalling: IEEE_UNDERFLOW_FLAG IEEE_DENORMAL
Note: The following floating-point exceptions are signalling: IEEE_UNDERFLOW_FLAG IEEE_DENORMAL
Note: The following floating-point exceptions are signalling: IEEE_UNDERFLOW_FLAG IEEE_DENORMAL
Note: The following floating-point exceptions are signalling: IEEE_UNDERFLOW_FLAG IEEE_DENORMAL
Note: The following floating-point exceptions are signalling: IEEE_UNDERFLOW_FLAG IEEE_DENORMAL
Note: The following floating-point exceptions are signalling: IEEE_UNDERFLOW_FLAG IEEE_DENORMAL
